 vasp.5.4.1 05Feb16 (build Jul 05 2020 17:13:04) complex

 executed on           IFC91_ompi date 2024.04.23  19:32:43

 INCAR:
 POTCAR:   PAW_PBE V 08Apr2002
 POTCAR:   PAW_PBE Mo 08Apr2002
 POTCAR:   PAW_PBE W 08Apr2002
 POTCAR:    PAW_PBE S 17Jan2003

 POTCAR:   PAW_PBE V 08Apr2002
   VRHFIN =V: p6 d4 s1

   TITEL  = PAW_PBE V 08Apr2002
   POMASS =   50.941; ZVAL   =    5.000    mass and valenz
   ENMAX  =  192.543; ENMIN  =  144.408 eV
   QCUT   =   -3.762; QGAM   =    7.524    optimization parameters

   Description
     l     E      TYP  RCUT    TYP  RCUT
     2   .000     23  2.700
     2   .000     23  2.700
     0   .000     23  2.700
     0  2.000     23  2.700
     1   .000     23  2.700
     1  2.000     23  2.700
     3   .000      7   .000

 POTCAR:   PAW_PBE Mo 08Apr2002
   VRHFIN =Mo: 4p5s4d

[...]

 POTCAR:   PAW_PBE W 08Apr2002
   VRHFIN =W : 6s5d

   TITEL  = PAW_PBE W 08Apr2002
   POMASS =  183.850; ZVAL   =    6.000    mass and valenz
   ENMAX  =  223.057; ENMIN  =  167.293 eV
   QCUT   =   -4.049; QGAM   =    8.098    optimization parameters

[...]

 POTCAR:    PAW_PBE S 17Jan2003
   VRHFIN =S : s2p4

   TITEL  = PAW_PBE S 17Jan2003
   POMASS =   32.066; ZVAL   =    6.000    mass and valenz
   ENMAX  =  280.000; ENMIN  =  194.016 eV
   QCUT   =   -4.360; QGAM   =    8.721    optimization parameters

   Description
     l     E      TYP  RCUT    TYP  RCUT
     0   .000     23  1.900
     0   .000     23  1.900
     1   .000     23  1.900
     1   .000     23  1.900
     2   .000     23  1.900

 PAW_PBE V 08Apr2002                    :
 PAW_PBE Mo 08Apr2002                   :
 PAW_PBE W 08Apr2002                    :
  PAW_PBE S 17Jan2003                   :

 POSCAR: crystal structure from VMoWS2 with Hexag
  positions in cartesian coordinates
 exchange correlation table for  LEXCH =        8
   RHO(1)=    0.500       N(1)  =     2000
   RHO(2)=  100.500       N(2)  =     4000

 ion  position               nearest neighbor table
   1  0.667  0.667  0.000-  21 2.34  24 2.34  27 2.36  26 2.36  19 2.36  18 2.36
   2  0.333  0.333  0.000-  13 2.34  16 2.34  19 2.36  18 2.36  11 2.36  10 2.36
   3  0.333  0.667  0.000-  15 2.34  18 2.34  20 2.36  21 2.36  13 2.36  12 2.36
   4  1.000  0.333  0.000-  25 2.34  10 2.34  13 2.36  12 2.36  22 2.36  23 2.36   5 3.34   8 3.34
                             7 3.34   6 3.36
   5  0.667  0.333  0.000-  19 2.34  22 2.34  25 2.36  24 2.36  17 2.36  16 2.36   4 3.34   6 3.34
                             8 3.36   9 3.36
   6  0.667  0.000  0.000-  17 2.34  26 2.34  23 2.36  22 2.36  21 2.36  20 2.36   7 3.34   5 3.34
                             9 3.34   4 3.36
   7  0.000  0.000  0.000-  23 2.34  14 2.34  11 2.36  10 2.36  27 2.36  26 2.36   6 3.34   8 3.34
                             4 3.34   9 3.34
   8  0.000  0.667  0.000-  27 2.34  12 2.34  14 2.36  15 2.36  24 2.36  25 2.36   7 3.34   4 3.34
                             9 3.36   5 3.36
   9  0.333  0.000  0.000-  11 2.34  20 2.34  17 2.36  16 2.36  15 2.36  14 2.36   6 3.34   7 3.34
                             8 3.36   5 3.36
  10  0.111  0.222  0.955-   4 2.34   7 2.36   2 2.36
  11  0.222  0.111  0.045-   9 2.34   7 2.36   2 2.36
  12  0.111  0.556  0.955-   8 2.34   4 2.36   3 2.36
  13  0.222  0.444  0.045-   2 2.34   4 2.36   3 2.36
  14  0.111  0.889  0.955-   7 2.34   8 2.36   9 2.36
  15  0.222  0.777  0.045-   3 2.34   8 2.36   9 2.36
  16  0.444  0.222  0.955-   2 2.34   9 2.36   5 2.36
  17  0.556  0.111  0.045-   6 2.34   9 2.36   5 2.36
  18  0.444  0.556  0.955-   3 2.34   2 2.36   1 2.36
  19  0.556  0.444  0.045-   5 2.34   2 2.36   1 2.36
  20  0.444  0.889  0.955-   9 2.34   3 2.36   6 2.36
  21  0.556  0.777  0.045-   1 2.34   3 2.36   6 2.36
  22  0.777  0.222  0.955-   5 2.34   6 2.36   4 2.36
  23  0.889  0.111  0.045-   7 2.34   6 2.36   4 2.36
  24  0.777  0.556  0.955-   1 2.34   5 2.36   8 2.36
  25  0.889  0.444  0.045-   4 2.34   5 2.36   8 2.36
  26  0.777  0.889  0.955-   6 2.34   1 2.36   7 2.36
  27  0.889  0.777  0.045-   8 2.34   1 2.36   7 2.36

IMPORTANT INFORMATION: All symmetrisations will be switched off!
NOSYMM: (Re-)initialisation of all symmetry stuff for point group C_1.

 KPOINTS: K-POINTS 	#supercell of CrS2 in hexagona

Automatic generation of k-mesh.
Space group operators:
 irot       det(A)        alpha          n_x          n_y          n_z        tau_x        tau_y        tau_z
    1     1.000000     0.000000     1.000000     0.000000     0.000000     0.000000     0.000000     0.000000

 Subroutine IBZKPT returns following result:

 Found     34 irreducible k-points:

 Following reciprocal coordinates:
            Coordinates               Weight
  0.000000  0.000000  0.000000      1.000000
  0.125000  0.000000  0.000000      2.000000
  0.250000  0.000000  0.000000      2.000000
  0.375000  0.000000  0.000000      2.000000
  0.500000  0.000000  0.000000      1.000000
  0.000000  0.125000  0.000000      2.000000
  0.125000  0.125000  0.000000      2.000000
  0.250000  0.125000  0.000000      2.000000
  0.375000  0.125000  0.000000      2.000000
  0.500000  0.125000  0.000000      2.000000
 -0.375000  0.125000  0.000000      2.000000
 -0.250000  0.125000  0.000000      2.000000
 -0.125000  0.125000  0.000000      2.000000
  0.000000  0.250000  0.000000      2.000000
  0.125000  0.250000  0.000000      2.000000
  0.250000  0.250000  0.000000      2.000000
  0.375000  0.250000  0.000000      2.000000
  0.500000  0.250000  0.000000      2.000000
 -0.375000  0.250000  0.000000      2.000000
 -0.250000  0.250000  0.000000      2.000000
 -0.125000  0.250000  0.000000      2.000000
 -0.000000  0.375000  0.000000      2.000000
  0.125000  0.375000  0.000000      2.000000
  0.250000  0.375000  0.000000      2.000000
  0.375000  0.375000  0.000000      2.000000
  0.500000  0.375000  0.000000      2.000000
 -0.375000  0.375000  0.000000      2.000000
 -0.250000  0.375000  0.000000      2.000000
 -0.125000  0.375000  0.000000      2.000000
  0.000000  0.500000  0.000000      1.000000
  0.125000  0.500000  0.000000      2.000000
  0.250000  0.500000  0.000000      2.000000
  0.375000  0.500000  0.000000      2.000000
  0.500000  0.500000  0.000000      1.000000

 Following cartesian coordinates:
            Coordinates               Weight
  0.000000  0.000000  0.000000      1.000000
  0.007209  0.012401  0.000000      2.000000
  0.014418  0.024802  0.000000      2.000000
  0.021626  0.037202  0.000000      2.000000
  0.028835  0.049603  0.000000      1.000000
 -0.007209  0.012401  0.000000      2.000000
  0.000000  0.024802  0.000000      2.000000
  0.007209  0.037202  0.000000      2.000000
  0.014418  0.049603  0.000000      2.000000
  0.021626  0.062004  0.000000      2.000000
 -0.028835 -0.024802  0.000000      2.000000
 -0.021626 -0.012401  0.000000      2.000000
 -0.014418  0.000000  0.000000      2.000000
 -0.014418  0.024802  0.000000      2.000000
 -0.007209  0.037202  0.000000      2.000000
  0.000000  0.049603  0.000000      2.000000
  0.007209  0.062004  0.000000      2.000000
  0.014418  0.074405  0.000000      2.000000
 -0.036044 -0.012401  0.000000      2.000000
 -0.028835  0.000000  0.000000      2.000000
 -0.021626  0.012401  0.000000      2.000000
 -0.021626  0.037202  0.000000      2.000000
 -0.014418  0.049603  0.000000      2.000000
 -0.007209  0.062004  0.000000      2.000000
  0.000000  0.074405  0.000000      2.000000
  0.007209  0.086806  0.000000      2.000000
 -0.043253  0.000000  0.000000      2.000000
 -0.036044  0.012401  0.000000      2.000000
 -0.028835  0.024802  0.000000      2.000000
 -0.028835  0.049603  0.000000      1.000000
 -0.021626  0.062004  0.000000      2.000000
 -0.014418  0.074405  0.000000      2.000000
 -0.007209  0.086806  0.000000      2.000000
  0.000000  0.099206  0.000000      1.000000

 I would recommend the setting:
   dimension x,y,z NGX =    41 NGY =   41 NGZ =  123
 SYSTEM =  unknown system
 POSCAR =  crystal structure from VMoWS2 with Hexag

 Startparameter for this run:
   NWRITE =      2    write-flag & timer
   PREC   = normal    normal or accurate (medium, high low for compatibility)
   ISTART =      0    job   : 0-new  1-cont  2-samecut
   ICHARG =      2    charge: 1-file 2-atom 10-const
   ISPIN  =      1    spin polarized calculation?
   LNONCOLLINEAR =      F non collinear calculations
   LSORBIT =      F    spin-orbit coupling
   INIWAV =      1    electr: 0-lowe 1-rand  2-diag
   LASPH  =      F    aspherical Exc in radial PAW
   METAGGA=      F    non-selfconsistent MetaGGA calc.

 Electronic Relaxation 1
   ENCUT  =  280.0 eV  20.58 Ry    4.54 a.u.  13.68 13.68 40.93*2*pi/ulx,y,z
   ENINI  =  280.0     initial cutoff
   ENAUG  =  373.4 eV  augmentation charge cutoff
   NELM   =     60;   NELMIN=  2; NELMDL= -5     # of ELM steps
   EDIFF  = 0.1E-03   stopping-criterion for ELM
   LREAL  =      F    real-space projection
   NLSPLINE    = F    spline interpolate recip. space projectors
   LCOMPAT=      F    compatible to vasp.4.4
   GGA_COMPAT  = T    GGA compatible to vasp.4.4-vasp.4.6
   LMAXPAW     = -100 max onsite density
   LMAXMIX     =    2 max onsite mixed and CHGCAR
   VOSKOWN=      0    Vosko Wilk Nusair interpolation
   ROPT   =    0.00000   0.00000   0.00000   0.00000
 Ionic relaxation
   EDIFFG = 0.1E-02   stopping-criterion for IOM
   NSW    =    100    number of steps for IOM
   NBLOCK =      1;   KBLOCK =    100    inner block; outer block
   IBRION =      1    ionic relax: 0-MD 1-quasi-New 2-CG
   NFREE  =      0    steps in history (QN), initial steepest desc. (CG)
   ISIF   =      3    stress and relaxation
   IWAVPR =     11    prediction:  0-non 1-charg 2-wave 3-comb
   ISYM   =      0    0-nonsym 1-usesym 2-fastsym
   LCORR  =      T    Harris-Foulkes like correction to forces

   POTIM  = 0.5000    time-step for ionic-motion
   TEIN   =    0.0    initial temperature
   TEBEG  =    0.0;   TEEND  =   0.0 temperature during run
   SMASS  =  -3.00    Nose mass-parameter (am)
   estimated Nose-frequenzy (Omega)   =  0.10E-29 period in steps =****** mass=  -0.230E-26a.u.
   SCALEE = 1.0000    scale energy and forces
   NPACO  =    256;   APACO  = 16.0  distance and # of slots for P.C.
   PSTRESS=    0.0 pullay stress

  Mass of Ions in am
   POMASS =  50.94 95.94183.85 32.07
  Ionic Valenz
   ZVAL   =   5.00  6.00  6.00  6.00
  Atomic Wigner-Seitz radii
  virtual crystal weights
   VCA    =   1.00  1.00  1.00  1.00
   NELECT =     159.0000    total number of electrons
   NUPDOWN=      -1.0000    fix difference up-down

 DOS related values:
   EMIN   =  10.00;   EMAX   =-10.00  energy-range for DOS
   EFERMI =   0.00
   ISMEAR =     0;   SIGMA  =   0.20  broadening in eV -4-tet -1-fermi 0-gaus

 Electronic relaxation 2 (details)
   IALGO  =     38    algorithm
   LDIAG  =      T    sub-space diagonalisation (order eigenvalues)
   LSUBROT=      F    optimize rotation matrix (better conditioning)
   TURBO    =      0    0=normal 1=particle mesh
   IRESTART =      0    0=no restart 2=restart with 2 vectors
   NREBOOT  =      0    no. of reboots
   NMIN     =      0    reboot dimension
   EREF     =   0.00    reference energy to select bands
[...]
     -3.85900      3.35900     28.66200         0.376888      0.692689     -2.161811
     -1.92100      3.35900      1.33800         0.329623      0.677625      1.378403
     -6.74900      5.03900     28.66200         0.141058      0.003415     -2.802586
     -4.81100      5.03900      1.33800         0.566749      0.002622      2.125198
      1.92100      3.35900     28.66200        -0.662911     -0.134062     -2.112100
      3.85900      3.35900      1.33800        -0.227492     -0.180243      2.903039
     -0.96900      5.03900     28.66200         0.063894     -0.002146     -0.792428
      0.96900      5.03900      1.33800        -0.909474     -0.002108      1.415621
     -3.85900      6.71900     28.66200         0.379665     -0.691415     -2.157875
     -1.92100      6.71900      1.33800         0.326669     -0.676488      1.375647
      4.81100      5.03900     28.66200         0.113418      0.001534     -2.959476
      6.74900      5.03900      1.33800         0.079034      0.002586      2.908543
      1.92100      6.71900     28.66200        -0.663837      0.138917     -2.112804
      3.85900      6.71900      1.33800        -0.227192      0.185067      2.902904
     -0.96900      8.39900     28.66200         0.604343     -0.556883     -2.154334
      0.96900      8.39900      1.33800        -0.447413     -0.542976      2.166057
    total drift:                               -0.000840     -0.000336     -0.001270

  FREE ENERGIE OF THE ION-ELECTRON SYSTEM (eV)
  free  energy   TOTEN  =      -186.81242400 eV

  energy  without entropy=     -186.46796165  energy(sigma->0) =     -186.64019282

 Quasi-Newton relaxation of ions (Broydens 2nd method)
  g(Force)  = 0.476E+01   g(Stress)= 0.364E+00

 Reset! Starting new Quasi-Newton update for ions

[...]

 d Force = 0.2428425E+01[ 0.934E-01, 0.476E+01]  d Energy = 0.1848522E+01 0.580E+00
 d Force = 0.9589859E+03[ 0.941E+03, 0.977E+03]  d Ewald  = 0.2538907E+04-0.158E+04

[...]

 retain information from N=  1 steps
 eigenvalues of (default step * inverse Hessian matrix)
  average eigenvalue of G=   0.2444
 eigenvalue spectrum of G is  0.2444

[...]

 d Force = 0.5075247E-01[ 0.494E-01, 0.521E-01]  d Energy = 0.1121299E+01-0.107E+01
 d Force =-0.4203863E+01[-0.430E+01,-0.411E+01]  d Ewald  =-0.1936550E+04 0.193E+04

[...]

 d Force = 0.5331894E+00[ 0.473E+00, 0.593E+00]  d Energy = 0.1056351E+01-0.523E+00
 d Force = 0.4103781E+03[ 0.420E+03, 0.401E+03]  d Ewald  =-0.1536214E+04 0.195E+04

[...]

 d Force = 0.1246580E+00[ 0.124E+00, 0.125E+00]  d Energy = 0.1275335E+00-0.288E-02
 d Force =-0.2927039E+02[-0.293E+02,-0.292E+02]  d Ewald  = 0.1597420E+03-0.189E+03

[...]

 d Force = 0.8258618E-01[ 0.803E-01, 0.848E-01]  d Energy = 0.8278922E-01-0.203E-03
 d Force = 0.2149504E+02[ 0.215E+02, 0.215E+02]  d Ewald  =-0.9498285E+01 0.310E+02

[...]

 d Force = 0.1238927E-01[-0.384E-02, 0.286E-01]  d Energy = 0.1410780E-01-0.172E-02
 d Force =-0.5518633E+02[-0.548E+02,-0.555E+02]  d Ewald  = 0.1293991E+03-0.185E+03

[...]

 d Force = 0.1142559E-02[-0.235E-03, 0.252E-02]  d Energy = 0.1035129E-02 0.107E-03
 d Force =-0.2716033E+01[-0.271E+01,-0.272E+01]  d Ewald  = 0.6163950E+01-0.888E+01

[...]

 FEWALD executed in parallel

[...]

 eigenvalue-minimisations  :  8600
 total energy-change (2. order) : 0.4095957E-03  (-0.6551841E-04)
 number of electron     158.9999644 magnetization
 augmentation part       -4.2185043 magnetization

 Broyden mixing:
  rms(total) = 0.35611E-02    rms(broyden)= 0.35487E-02
  rms(prec ) = 0.38413E-02
  weight for this iteration     100.00

 eigenvalues of (default mixing * dielectric matrix)
  average eigenvalue GAMMA=   0.6791
  1.6161  0.7851  0.1919  0.1233

[...]

----------------------------------------- Iteration   13(   6)  ---------------------------------------

 eigenvalue-minimisations  :  6240
 total energy-change (2. order) :-0.1754236E-04  (-0.1560061E-04)
 number of electron     158.9999644 magnetization
 augmentation part       -4.2185043 magnetization

 Free energy of the ion-electron system (eV)
  alpha Z        PSCENC =        88.19449369
  Ewald energy   TEWEN  =     43811.71250337
  -Hartree energ DENC   =    -49817.59360702
  -exchange      EXHF   =         0.00000000
  -V(xc)+E(xc)   XCENC  =      -233.80190097
  PAW double counting   =      4093.95657812    -3510.07334264
  entropy T*S    EENTRO =        -0.21278214
  eigenvalues    EBANDS =     -1385.83580003
  atomic energy  EATOM  =      6761.44252427
  Solvation  Ediel_sol  =         0.00000000
  free energy    TOTEN  =      -192.21133334 eV

  energy without entropy =     -191.99855120  energy(sigma->0) =     -192.10494227

 average (electrostatic) potential at core
  the test charge radii are     1.2064  1.2296  1.1823  0.9698
  (the norm of the test charge is              1.0000)
       1 -49.9530       2 -49.9569       3 -49.9565       4 -46.9378       5 -46.9381
       6 -46.9387       7 -49.5813       8 -49.5853       9 -49.5852      10 -95.0570
      11 -94.8812      12 -95.0591      13 -94.8015      14 -94.5129      15 -94.8787
      16 -95.0551      17 -95.1956      18 -94.7505      19 -94.7882      20 -95.0592
      21 -94.8029      22 -95.0877      23 -95.1974      24 -95.0550      25 -95.1954
      26 -95.0569      27 -94.8805

 E-fermi :  -3.1285     XC(G=0):  -2.5361     alpha+bet : -2.3326

[...]

 k-point    34 :       0.5000    0.5000    0.0000
  band No.  band energies     occupation
      1     -17.4318      2.00000
      2     -17.3370      2.00000
      3     -16.7278      2.00000
      4     -16.6941      2.00000
      5     -16.5216      2.00000
      6     -16.3475      2.00000
      7     -16.2431      2.00000
      8     -16.1973      2.00000
      9     -16.0325      2.00000
     10     -16.0054      2.00000
     11     -15.9156      2.00000
     12     -15.9054      2.00000
     13     -15.7796      2.00000
     14     -15.7308      2.00000
     15     -15.6024      2.00000
     16     -15.5905      2.00000
     17     -15.5106      2.00000
     18     -15.4826      2.00000
     19      -9.7605      2.00000
     20      -9.2859      2.00000
     21      -9.1401      2.00000
     22      -9.0455      2.00000
     23      -8.8980      2.00000
     24      -8.7759      2.00000
     25      -8.5585      2.00000
     26      -8.5308      2.00000
     27      -8.4015      2.00000
     28      -8.3159      2.00000
     29      -8.2821      2.00000
     30      -8.1810      2.00000
     31      -8.0921      2.00000
     32      -8.0166      2.00000
     33      -7.8886      2.00000
     34      -7.8663      2.00000
     35      -7.7527      2.00000
     36      -7.6192      2.00000
     37      -7.4808      2.00000
     38      -7.4330      2.00000
     39      -7.4294      2.00000
     40      -7.1967      2.00000
     41      -7.1330      2.00000
     42      -7.0826      2.00000
     43      -6.9900      2.00000
     44      -6.9327      2.00000
     45      -6.7641      2.00000
     46      -6.7196      2.00000
     47      -6.6989      2.00000
     48      -6.6236      2.00000
     49      -6.5245      2.00000
     50      -6.4235      2.00000
     51      -6.3839      2.00000
     52      -6.3648      2.00000
     53      -6.3364      2.00000
     54      -6.2693      2.00000
     55      -6.1786      2.00000
     56      -6.0368      2.00000
     57      -6.0337      2.00000
     58      -6.0175      2.00000
     59      -5.9462      2.00000
     60      -5.8758      2.00000
[...]
    106      -0.5090      0.00000
    107      -0.2537      0.00000
    108      -0.2024      0.00000
    109      -0.0900      0.00000
    110       0.2835      0.00000
    111       0.4184      0.00000
    112       0.6595      0.00000
    113       0.9218      0.00000
    114       0.9932      0.00000
    115       1.0767      0.00000
    116       1.2078      0.00000
    117       1.3950      0.00000
    118       2.2100      0.00000
    119       2.2411      0.00000
    120       2.3583      0.00000

 soft charge-density along one line, spin component           1
         0         1         2         3         4         5         6         7         8         9
 total charge-density along one line

------------------------ aborting loop because EDIFF is reached ----------------------------------------

  FORCE on cell =-STRESS in cart. coord.  units (eV):
  Direction    XX          YY          ZZ          XY          YZ          ZX
  Alpha Z    88.19449    88.19449    88.19449
  Ewald   48748.79189 48749.06243-53686.15877     0.04696     0.06097    -0.09943
  Hartree 49463.59873 49463.88968-49110.27143     0.05225     0.00454    -0.03158
  E(xc)    -609.96545  -609.97575  -617.04087    -0.00101    -0.00165     0.00473
  Local  ************************100238.29290    -0.10054    -0.06248     0.15215
  n-local  1214.99632  1214.87546  1250.45188     0.00136     0.00717    -0.00036
  augment  -212.46008  -212.40457  -215.26043     0.00204     0.00064    -0.00459
  Kinetic  2012.86518  2013.00931  2049.70714     0.00141    -0.00175    -0.03908
  Fock        0.00000     0.00000     0.00000     0.00000     0.00000     0.00000
  Total       0.20869     0.22648    -2.08508     0.00247     0.00743    -0.01815
  in kB       0.13774     0.14948    -1.37622     0.00163     0.00490    -0.01198

 VOLUME and BASIS-vectors are now :
  energy-cutoff  :      280.00
  volume of cell :     2427.42
      direct lattice vectors                 reciprocal lattice vectors
     8.370403574  4.833140464  0.000000000     0.059735567  0.103450169  0.000000000
    -8.370583633  4.833453229  0.000000000    -0.059731701  0.103447944  0.000000000
     0.000000000  0.000000000 30.000000000     0.000000000  0.000000000  0.033333333

  length of vectors
     9.665552376  9.665864704 30.000000000     0.119458258  0.119454398  0.033333333

 FORCES acting on ions
    electron-ion (+dipol)            ewald-force                    non-local-force                 convergence-correction
   -.589E+00 -.228E+00 -.930E+01   0.322E+00 -.265E+00 0.964E+01   0.237E+00 0.484E+00 -.341E+00   0.817E-03 0.388E-02 -.251E-02
   -.557E+00 0.177E+00 -.928E+01   0.292E+00 0.276E+00 0.962E+01   0.241E+00 -.486E+00 -.339E+00   -.221E-02 0.328E-01 -.776E-03
   0.475E+00 0.125E-01 -.896E+01   0.303E-01 -.303E-01 0.930E+01   -.532E+00 0.256E-02 -.337E+00   0.426E-01 0.156E-01 -.107E-02
   -.161E+02 -.279E+02 0.133E+01   0.158E+02 0.274E+02 -.151E+01   0.293E+00 0.495E+00 0.166E+00   -.180E-01 -.553E-01 0.584E-02
   0.325E+02 -.223E-01 0.120E+01   -.319E+02 -.928E-03 -.137E+01   -.548E+00 -.162E-02 0.164E+00   0.181E-01 0.227E-01 0.370E-02
   -.161E+02 0.279E+02 0.134E+01   0.158E+02 -.274E+02 -.152E+01   0.292E+00 -.496E+00 0.169E+00   0.177E-01 0.395E-01 0.403E-02
   -.347E+02 0.379E-01 0.844E+01   0.353E+02 0.875E-02 -.881E+01   -.496E+00 0.349E-02 0.364E+00   -.538E-01 -.446E-01 0.158E-02
   0.175E+02 -.300E+02 0.846E+01   -.177E+02 0.305E+02 -.883E+01   0.252E+00 -.423E+00 0.364E+00   -.249E-01 -.746E-01 0.128E-02
   0.175E+02 0.300E+02 0.847E+01   -.177E+02 -.305E+02 -.884E+01   0.249E+00 0.425E+00 0.366E+00   0.146E-01 0.544E-01 0.525E-04
   -.186E+02 -.175E+02 0.571E+03   0.194E+02 0.171E+02 -.575E+03   -.802E+00 0.407E+00 0.376E+01   -.422E-01 -.116E-01 -.188E-02
   -.775E+01 0.131E+02 -.529E+03   0.723E+01 -.122E+02 0.534E+03   0.527E+00 -.913E+00 -.447E+01   -.164E-01 0.478E-02 0.302E-01
   -.586E+01 -.248E+02 0.571E+03   0.507E+01 0.253E+02 -.575E+03   0.765E+00 -.474E+00 0.376E+01   0.144E-01 -.602E-01 -.217E-01
   -.414E+01 -.731E+01 -.532E+03   0.453E+01 0.801E+01 0.536E+03   -.401E+00 -.662E+00 -.341E+01   0.304E-02 -.413E-01 0.179E-01
   0.272E-03 0.409E-01 0.463E+03   0.240E-01 -.182E-01 -.468E+03   0.297E-02 -.523E-03 0.511E+01   -.269E-01 -.226E-01 -.299E-01
   0.153E+02 0.258E-01 -.529E+03   -.143E+02 -.207E-01 0.534E+03   -.104E+01 -.128E-03 -.448E+01   -.103E-01 -.508E-02 0.496E-01
   0.247E+02 0.711E+01 0.570E+03   -.247E+02 -.807E+01 -.574E+03   0.234E-01 0.908E+00 0.376E+01   0.877E-02 0.569E-01 -.766E-02
   0.963E+01 0.165E+02 -.621E+03   -.102E+02 -.175E+02 0.624E+03   0.571E+00 0.960E+00 -.355E+01   0.306E-01 0.584E-01 -.132E-01
   -.375E+00 -.705E-01 0.521E+03   0.307E+00 0.623E-02 -.525E+03   0.595E-02 -.204E-02 0.404E+01   0.604E-01 0.660E-01 0.114E-01
   0.838E+01 -.984E-01 -.531E+03   -.913E+01 0.272E-01 0.535E+03   0.759E+00 -.953E-03 -.344E+01   0.698E-03 0.719E-01 -.419E-01
   -.589E+01 0.248E+02 0.571E+03   0.508E+01 -.253E+02 -.575E+03   0.765E+00 0.476E+00 0.376E+01   0.369E-01 0.577E-01 -.226E-01
   -.425E+01 0.728E+01 -.532E+03   0.457E+01 -.799E+01 0.536E+03   -.403E+00 0.664E+00 -.341E+01   0.776E-01 0.564E-01 -.287E-01
   0.255E-01 -.197E-03 0.634E+03   -.444E-01 -.804E-03 -.638E+03   0.183E-01 -.210E-02 0.347E+01   0.539E-02 0.280E-02 0.582E-01
   -.190E+02 0.990E-02 -.621E+03   0.202E+02 0.342E-02 0.624E+03   -.112E+01 -.119E-02 -.355E+01   -.442E-01 -.124E-01 -.311E-01
   0.248E+02 -.714E+01 0.570E+03   -.247E+02 0.808E+01 -.574E+03   0.199E-01 -.910E+00 0.376E+01   -.499E-01 -.337E-01 0.428E-01
   0.965E+01 -.165E+02 -.621E+03   -.102E+02 0.175E+02 0.624E+03   0.570E+00 -.960E+00 -.355E+01   0.136E-01 -.536E-01 -.229E-01
   -.187E+02 0.176E+02 0.571E+03   0.195E+02 -.171E+02 -.575E+03   -.804E+00 -.410E+00 0.376E+01   -.183E-02 -.485E-01 0.483E-01
   -.772E+01 -.130E+02 -.529E+03   0.724E+01 0.122E+02 0.534E+03   0.527E+00 0.914E+00 -.447E+01   -.524E-01 -.768E-01 -.248E-01
   0.323E-01 -.575E-03 -.144E+01   -.284E-13 -.320E-13 0.000E+00   -.361E-01 -.350E-02 0.141E+01   0.222E-02 0.322E-02 0.243E-01

 POSITION                                       TOTAL-FORCE (eV/Angst)
      0.01148      6.47203      0.05008        -0.028820     -0.004398     -0.000257
      0.01203      3.19293      0.05002        -0.026742      0.000218      0.000861
     -2.82041      4.83309      0.04871         0.016138      0.000346     -0.004429
      5.48634      6.28061     -0.00947         0.005358      0.005724     -0.007235
      2.98132      4.83261     -0.00905         0.011579     -0.002030     -0.002935
      5.48646      3.38430     -0.00951         0.003118     -0.006484     -0.004848
     -0.32571     -0.00058     -0.02986         0.013008      0.005505     -0.002820
     -5.41725      2.93958     -0.03011        -0.000544      0.013642     -0.004244
      2.95316      1.89243     -0.03015        -0.004716     -0.009898     -0.002505
     -0.95475      1.65484     28.44783         0.000214     -0.006096      0.010595
      0.93077      1.60870      1.43067        -0.007548      0.011444     -0.003646
     -3.66905      3.22221     28.44868        -0.002354     -0.004645      0.015228
     -1.85544      3.23091      1.42476        -0.005459     -0.003996     -0.009495
     -6.51040      4.83277     28.77672         0.000420     -0.000419      0.012609
     -4.65166      4.83278      1.43068         0.014223     -0.000078     -0.003631
      1.83452      3.26583     28.44989         0.005209      0.003100      0.017813
      3.74013      3.25576      1.68916         0.001860      0.000896     -0.000443
     -0.93020      4.83258     28.59348        -0.001065     -0.000362     -0.004373
      0.92016      4.83250      1.42184         0.010323     -0.000259     -0.027719
     -3.66931      6.44326     28.44865        -0.001141      0.004076      0.012680
     -1.85565      6.43451      1.42523        -0.005971      0.004927     -0.007062
      4.65087      4.83254     28.27514         0.004775     -0.000268     -0.009270
      6.47039      4.83255      1.68901        -0.001229     -0.000224      0.001887
      1.83457      6.39944     28.45007         0.005240     -0.003904      0.016732
      3.74010      6.40943      1.68911         0.001595     -0.000727      0.001325
     -0.95484      8.01078     28.44805        -0.000786      0.004254      0.007032
      0.93062      8.05659      1.43037        -0.006685     -0.010345     -0.001852
    total drift:                               -0.001607     -0.000863      0.002475

  FREE ENERGIE OF THE ION-ELECTRON SYSTEM (eV)
  free  energy   TOTEN  =      -192.21133334 eV

  energy  without entropy=     -191.99855120  energy(sigma->0) =     -192.10494227

 d Force = 0.7907299E-03[ 0.357E-03, 0.122E-02]  d Energy = 0.9317485E-03-0.141E-03
 d Force =-0.1838143E+02[-0.184E+02,-0.184E+02]  d Ewald  = 0.2633909E+02-0.447E+02

 Quasi-Newton relaxation of ions (Broydens 2nd method)
  g(Force)  = 0.292E-03   g(Stress)= 0.169E-03

 retain information from N=  1 steps
 eigenvalues of (default step * inverse Hessian matrix)
  average eigenvalue of G=   2.4240
 eigenvalue spectrum of G is  2.4240

 reached required accuracy - stopping structural energy minimisation