 vasp.5.4.1 05Feb16 (build Jul 05 2020 17:13:04) complex

 executed on           IFC91_ompi date 2024.04.22  11:47:36

 INCAR:
 POTCAR:   PAW_PBE V 08Apr2002
 POTCAR:   PAW_PBE Mo 08Apr2002
 POTCAR:   PAW_PBE W 08Apr2002
 POTCAR:    PAW_PBE S 17Jan2003

 POTCAR:   PAW_PBE V 08Apr2002
   VRHFIN =V: p6 d4 s1

   TITEL  = PAW_PBE V 08Apr2002
   POMASS =   50.941; ZVAL   =    5.000    mass and valenz
   ENMAX  =  192.543; ENMIN  =  144.408 eV
   QCUT   =   -3.762; QGAM   =    7.524    optimization parameters

   Description
     l     E      TYP  RCUT    TYP  RCUT
     2   .000     23  2.700
     2   .000     23  2.700
     0   .000     23  2.700
     0  2.000     23  2.700
     1   .000     23  2.700
     1  2.000     23  2.700
     3   .000      7   .000

 POTCAR:   PAW_PBE Mo 08Apr2002
   VRHFIN =Mo: 4p5s4d

[...]

 POTCAR:   PAW_PBE W 08Apr2002
   VRHFIN =W : 6s5d

   TITEL  = PAW_PBE W 08Apr2002
   POMASS =  183.850; ZVAL   =    6.000    mass and valenz
   ENMAX  =  223.057; ENMIN  =  167.293 eV
   QCUT   =   -4.049; QGAM   =    8.098    optimization parameters

[...]

 POTCAR:    PAW_PBE S 17Jan2003
   VRHFIN =S : s2p4

   TITEL  = PAW_PBE S 17Jan2003
   POMASS =   32.066; ZVAL   =    6.000    mass and valenz
   ENMAX  =  280.000; ENMIN  =  194.016 eV
   QCUT   =   -4.360; QGAM   =    8.721    optimization parameters

   Description
     l     E      TYP  RCUT    TYP  RCUT
     0   .000     23  1.900
     0   .000     23  1.900
     1   .000     23  1.900
     1   .000     23  1.900
     2   .000     23  1.900

 PAW_PBE V 08Apr2002                    :
 PAW_PBE Mo 08Apr2002                   :
 PAW_PBE W 08Apr2002                    :
  PAW_PBE S 17Jan2003                   :

 POSCAR: crystal structure from VMoWS2 with Hexag
  positions in cartesian coordinates
 exchange correlation table for  LEXCH =        8
   RHO(1)=    0.500       N(1)  =     2000
   RHO(2)=  100.500       N(2)  =     4000

 ion  position               nearest neighbor table
   1  0.333  0.000  0.000-  11 2.34  20 2.34  17 2.36  16 2.36  15 2.36  14 2.36
   2  0.667  0.667  0.000-  21 2.34  24 2.34  27 2.36  26 2.36  19 2.36  18 2.36
   3  1.000  0.333  0.000-  25 2.34  10 2.34  13 2.36  12 2.36  22 2.36  23 2.36
   4  0.333  0.333  0.000-  13 2.34  16 2.34  19 2.36  18 2.36  11 2.36  10 2.36   8 3.34   9 3.34
                             7 3.36
   5  0.000  0.667  0.000-  27 2.34  12 2.34  14 2.36  15 2.36  24 2.36  25 2.36   7 3.34   8 3.34
                             9 3.36
   6  0.667  0.000  0.000-  17 2.34  26 2.34  23 2.36  22 2.36  21 2.36  20 2.36   7 3.34   9 3.34
                             8 3.36
   7  0.000  0.000  0.000-  23 2.34  14 2.34  11 2.36  10 2.36  27 2.36  26 2.36   6 3.34   5 3.34
                             4 3.36
   8  0.333  0.667  0.000-  15 2.34  18 2.34  20 2.36  21 2.36  13 2.36  12 2.36   4 3.34   5 3.34
                             6 3.36
   9  0.667  0.333  0.000-  19 2.34  22 2.34  25 2.36  24 2.36  17 2.36  16 2.36   6 3.34   4 3.34
                             5 3.36
  10  0.111  0.222  0.955-   3 2.34   7 2.36   4 2.36
  11  0.222  0.111  0.045-   1 2.34   7 2.36   4 2.36
  12  0.111  0.556  0.955-   5 2.34   3 2.36   8 2.36
  13  0.222  0.444  0.045-   4 2.34   3 2.36   8 2.36
  14  0.111  0.889  0.955-   7 2.34   5 2.36   1 2.36
  15  0.222  0.777  0.045-   8 2.34   5 2.36   1 2.36
  16  0.444  0.222  0.955-   4 2.34   1 2.36   9 2.36
  17  0.556  0.111  0.045-   6 2.34   1 2.36   9 2.36
  18  0.444  0.556  0.955-   8 2.34   4 2.36   2 2.36
  19  0.556  0.444  0.045-   9 2.34   4 2.36   2 2.36
  20  0.444  0.889  0.955-   1 2.34   8 2.36   6 2.36
  21  0.556  0.777  0.045-   2 2.34   8 2.36   6 2.36
  22  0.777  0.222  0.955-   9 2.34   6 2.36   3 2.36
  23  0.889  0.111  0.045-   7 2.34   6 2.36   3 2.36
  24  0.777  0.556  0.955-   2 2.34   9 2.36   5 2.36
  25  0.889  0.444  0.045-   3 2.34   9 2.36   5 2.36
  26  0.777  0.889  0.955-   6 2.34   2 2.36   7 2.36
  27  0.889  0.777  0.045-   5 2.34   2 2.36   7 2.36

IMPORTANT INFORMATION: All symmetrisations will be switched off!
NOSYMM: (Re-)initialisation of all symmetry stuff for point group C_1.

 KPOINTS: K-POINTS 	#supercell of CrS2 in hexagona

Automatic generation of k-mesh.
Space group operators:
 irot       det(A)        alpha          n_x          n_y          n_z        tau_x        tau_y        tau_z
    1     1.000000     0.000000     1.000000     0.000000     0.000000     0.000000     0.000000     0.000000

 Subroutine IBZKPT returns following result:

 Found     34 irreducible k-points:

 Following reciprocal coordinates:
            Coordinates               Weight
  0.000000  0.000000  0.000000      1.000000
  0.125000  0.000000  0.000000      2.000000
  0.250000  0.000000  0.000000      2.000000
  0.375000  0.000000  0.000000      2.000000
  0.500000  0.000000  0.000000      1.000000
  0.000000  0.125000  0.000000      2.000000
  0.125000  0.125000  0.000000      2.000000
  0.250000  0.125000  0.000000      2.000000
  0.375000  0.125000  0.000000      2.000000
  0.500000  0.125000  0.000000      2.000000
 -0.375000  0.125000  0.000000      2.000000
 -0.250000  0.125000  0.000000      2.000000
 -0.125000  0.125000  0.000000      2.000000
  0.000000  0.250000  0.000000      2.000000
  0.125000  0.250000  0.000000      2.000000
  0.250000  0.250000  0.000000      2.000000
  0.375000  0.250000  0.000000      2.000000
  0.500000  0.250000  0.000000      2.000000
 -0.375000  0.250000  0.000000      2.000000
 -0.250000  0.250000  0.000000      2.000000
 -0.125000  0.250000  0.000000      2.000000
 -0.000000  0.375000  0.000000      2.000000
  0.125000  0.375000  0.000000      2.000000
  0.250000  0.375000  0.000000      2.000000
  0.375000  0.375000  0.000000      2.000000
  0.500000  0.375000  0.000000      2.000000
 -0.375000  0.375000  0.000000      2.000000
 -0.250000  0.375000  0.000000      2.000000
 -0.125000  0.375000  0.000000      2.000000
  0.000000  0.500000  0.000000      1.000000
  0.125000  0.500000  0.000000      2.000000
  0.250000  0.500000  0.000000      2.000000
  0.375000  0.500000  0.000000      2.000000
  0.500000  0.500000  0.000000      1.000000

 Following cartesian coordinates:
            Coordinates               Weight
  0.000000  0.000000  0.000000      1.000000
  0.007209  0.012401  0.000000      2.000000
  0.014418  0.024802  0.000000      2.000000
  0.021626  0.037202  0.000000      2.000000
  0.028835  0.049603  0.000000      1.000000
 -0.007209  0.012401  0.000000      2.000000
  0.000000  0.024802  0.000000      2.000000
  0.007209  0.037202  0.000000      2.000000
  0.014418  0.049603  0.000000      2.000000
  0.021626  0.062004  0.000000      2.000000
 -0.028835 -0.024802  0.000000      2.000000
 -0.021626 -0.012401  0.000000      2.000000
 -0.014418  0.000000  0.000000      2.000000
 -0.014418  0.024802  0.000000      2.000000
 -0.007209  0.037202  0.000000      2.000000
  0.000000  0.049603  0.000000      2.000000
  0.007209  0.062004  0.000000      2.000000
  0.014418  0.074405  0.000000      2.000000
 -0.036044 -0.012401  0.000000      2.000000
 -0.028835  0.000000  0.000000      2.000000
 -0.021626  0.012401  0.000000      2.000000
 -0.021626  0.037202  0.000000      2.000000
 -0.014418  0.049603  0.000000      2.000000
 -0.007209  0.062004  0.000000      2.000000
  0.000000  0.074405  0.000000      2.000000
  0.007209  0.086806  0.000000      2.000000
 -0.043253  0.000000  0.000000      2.000000
 -0.036044  0.012401  0.000000      2.000000
 -0.028835  0.024802  0.000000      2.000000
 -0.028835  0.049603  0.000000      1.000000
 -0.021626  0.062004  0.000000      2.000000
 -0.014418  0.074405  0.000000      2.000000
 -0.007209  0.086806  0.000000      2.000000
  0.000000  0.099206  0.000000      1.000000

 I would recommend the setting:
   dimension x,y,z NGX =    41 NGY =   41 NGZ =  123
 SYSTEM =  unknown system
 POSCAR =  crystal structure from VMoWS2 with Hexag

 Startparameter for this run:
   NWRITE =      2    write-flag & timer
   PREC   = normal    normal or accurate (medium, high low for compatibility)
   ISTART =      0    job   : 0-new  1-cont  2-samecut
   ICHARG =      2    charge: 1-file 2-atom 10-const
   ISPIN  =      1    spin polarized calculation?
   LNONCOLLINEAR =      F non collinear calculations
   LSORBIT =      F    spin-orbit coupling
   INIWAV =      1    electr: 0-lowe 1-rand  2-diag
   LASPH  =      F    aspherical Exc in radial PAW
   METAGGA=      F    non-selfconsistent MetaGGA calc.

 Electronic Relaxation 1
   ENCUT  =  280.0 eV  20.58 Ry    4.54 a.u.  13.68 13.68 40.93*2*pi/ulx,y,z
   ENINI  =  280.0     initial cutoff
   ENAUG  =  373.4 eV  augmentation charge cutoff
   NELM   =     60;   NELMIN=  2; NELMDL= -5     # of ELM steps
   EDIFF  = 0.1E-03   stopping-criterion for ELM
   LREAL  =      F    real-space projection
   NLSPLINE    = F    spline interpolate recip. space projectors
   LCOMPAT=      F    compatible to vasp.4.4
   GGA_COMPAT  = T    GGA compatible to vasp.4.4-vasp.4.6
   LMAXPAW     = -100 max onsite density
   LMAXMIX     =    2 max onsite mixed and CHGCAR
   VOSKOWN=      0    Vosko Wilk Nusair interpolation
   ROPT   =    0.00000   0.00000   0.00000   0.00000
 Ionic relaxation
   EDIFFG = 0.1E-02   stopping-criterion for IOM
   NSW    =    100    number of steps for IOM
   NBLOCK =      1;   KBLOCK =    100    inner block; outer block
   IBRION =      1    ionic relax: 0-MD 1-quasi-New 2-CG
   NFREE  =      0    steps in history (QN), initial steepest desc. (CG)
   ISIF   =      3    stress and relaxation
   IWAVPR =     11    prediction:  0-non 1-charg 2-wave 3-comb
   ISYM   =      0    0-nonsym 1-usesym 2-fastsym
   LCORR  =      T    Harris-Foulkes like correction to forces

   POTIM  = 0.5000    time-step for ionic-motion
   TEIN   =    0.0    initial temperature
   TEBEG  =    0.0;   TEEND  =   0.0 temperature during run
   SMASS  =  -3.00    Nose mass-parameter (am)
   estimated Nose-frequenzy (Omega)   =  0.10E-29 period in steps =****** mass=  -0.230E-26a.u.
   SCALEE = 1.0000    scale energy and forces
   NPACO  =    256;   APACO  = 16.0  distance and # of slots for P.C.
   PSTRESS=    0.0 pullay stress

  Mass of Ions in am
   POMASS =  50.94 95.94183.85 32.07
  Ionic Valenz
   ZVAL   =   5.00  6.00  6.00  6.00
  Atomic Wigner-Seitz radii
  virtual crystal weights
   VCA    =   1.00  1.00  1.00  1.00
   NELECT =     159.0000    total number of electrons
   NUPDOWN=      -1.0000    fix difference up-down

 DOS related values:
   EMIN   =  10.00;   EMAX   =-10.00  energy-range for DOS
   EFERMI =   0.00
   ISMEAR =     0;   SIGMA  =   0.20  broadening in eV -4-tet -1-fermi 0-gaus

 Electronic relaxation 2 (details)
   IALGO  =     38    algorithm
   LDIAG  =      T    sub-space diagonalisation (order eigenvalues)
   LSUBROT=      F    optimize rotation matrix (better conditioning)
   TURBO    =      0    0=normal 1=particle mesh
   IRESTART =      0    0=no restart 2=restart with 2 vectors
   NREBOOT  =      0    no. of reboots
   NMIN     =      0    reboot dimension
   EREF     =   0.00    reference energy to select bands
   IMIX   =      4    mixing-type and parameters
[...]
      5.78000      3.36000      0.00000         0.003093     -0.001793     -0.000128
      0.00000      0.00000      0.00000        -0.007073     -0.006721     -0.000093
     -2.89000      5.04000      0.00000         0.003079     -0.014345     -0.000087
      2.89000      5.04000      0.00000         0.004029     -0.004280      0.000082
     -0.96900      1.67900     28.66200        -0.690152     -0.145014     -2.115801
      0.96900      1.67900      1.33800         0.683629     -0.144848      2.119039
     -3.85900      3.35900     28.66200         0.622764     -0.577883     -2.153532
     -1.92100      3.35900      1.33800        -0.623170     -0.577776      2.154409
     -6.74900      5.03900     28.66200         0.379210      0.718679     -2.165815
     -4.81100      5.03900      1.33800        -0.380760      0.718639      2.167418
      1.92100      3.35900     28.66200         0.619887     -0.571843     -2.155933
      3.85900      3.35900      1.33800        -0.619594     -0.571759      2.156849
     -0.96900      5.03900     28.66200         0.381495      0.719951     -2.168066
      0.96900      5.03900      1.33800        -0.380689      0.719927      2.166087
     -3.85900      6.71900     28.66200        -0.683850     -0.143343     -2.118404
     -1.92100      6.71900      1.33800         0.685156     -0.143102      2.118283
      4.81100      5.03900     28.66200         0.383287      0.724385     -2.164483
      6.74900      5.03900      1.33800        -0.382672      0.724270      2.164989
      1.92100      6.71900     28.66200        -0.685124     -0.143922     -2.119353
      3.85900      6.71900      1.33800         0.690778     -0.144184      2.116081
     -0.96900      8.39900     28.66200         0.621032     -0.572014     -2.156042
      0.96900      8.39900      1.33800        -0.620945     -0.571665      2.154500
    total drift:                                0.000563     -0.000529     -0.000135

  FREE ENERGIE OF THE ION-ELECTRON SYSTEM (eV)
  free  energy   TOTEN  =      -186.97330058 eV

  energy  without entropy=     -186.62856226  energy(sigma->0) =     -186.80093142

 Quasi-Newton relaxation of ions (Broydens 2nd method)
  g(Force)  = 0.454E+01   g(Stress)= 0.358E+00

 Reset! Starting new Quasi-Newton update for ions

[...]

 d Force = 0.2268525E+01[-0.155E-01, 0.455E+01]  d Energy = 0.1697773E+01 0.571E+00
 d Force = 0.9524604E+03[ 0.934E+03, 0.971E+03]  d Ewald  = 0.2520645E+04-0.157E+04

[...]

 retain information from N=  1 steps
 eigenvalues of (default step * inverse Hessian matrix)
  average eigenvalue of G=   0.2442
 eigenvalue spectrum of G is  0.2442

[...]

 d Force = 0.1936763E-02[-0.380E-03, 0.425E-02]  d Energy = 0.1058760E+01-0.106E+01
 d Force =-0.2278997E+01[-0.234E+01,-0.222E+01]  d Ewald  =-0.1918459E+04 0.192E+04

[...]

 d Force = 0.3271775E+00[ 0.262E+00, 0.393E+00]  d Energy = 0.8567108E+00-0.530E+00
 d Force = 0.4156068E+03[ 0.425E+03, 0.406E+03]  d Ewald  =-0.1544602E+04 0.196E+04

[...]

 d Force = 0.2475948E-02[ 0.849E-03, 0.410E-02]  d Energy = 0.3418076E-02-0.942E-03
 d Force = 0.5153320E+02[ 0.516E+02, 0.514E+02]  d Ewald  =-0.1462123E+03 0.198E+03

[...]

 FEWALD executed in parallel

[...]

 eigenvalue-minimisations  :  9640
 total energy-change (2. order) : 0.5506667E-03  (-0.8150557E-04)
 number of electron     159.0000110 magnetization
 augmentation part       -4.1558794 magnetization

 Broyden mixing:
  rms(total) = 0.40740E-02    rms(broyden)= 0.40614E-02
  rms(prec ) = 0.44485E-02
  weight for this iteration     100.00

 eigenvalues of (default mixing * dielectric matrix)
  average eigenvalue GAMMA=   0.5758
  0.9674  0.1842

[...]

----------------------------------------- Iteration    7(   4)  ---------------------------------------

 eigenvalue-minimisations  :  6080
 total energy-change (2. order) :-0.3146755E-04  (-0.1309939E-04)
 number of electron     159.0000110 magnetization
 augmentation part       -4.1558794 magnetization

 Free energy of the ion-electron system (eV)
  alpha Z        PSCENC =        90.72516097
  Ewald energy   TEWEN  =     44893.48350691
  -Hartree energ DENC   =    -50907.18997249
  -exchange      EXHF   =         0.00000000
  -V(xc)+E(xc)   XCENC  =      -233.31194990
  PAW double counting   =      4079.05340453    -3494.87985258
  entropy T*S    EENTRO =        -0.15483523
  eigenvalues    EBANDS =     -1380.21560311
  atomic energy  EATOM  =      6761.44252427
  Solvation  Ediel_sol  =         0.00000000
  free energy    TOTEN  =      -191.04761663 eV

  energy without entropy =     -190.89278139  energy(sigma->0) =     -190.97019901

 average (electrostatic) potential at core
  the test charge radii are     1.2064  1.2296  1.1823  0.9698
  (the norm of the test charge is              1.0000)
       1 -49.6116       2 -49.5997       3 -49.6080       4 -47.0819       5 -47.0823
       6 -47.0815       7 -49.5080       8 -49.5084       9 -49.5084      10 -94.9565
      11 -94.9560      12 -94.9586      13 -94.9588      14 -94.9560      15 -94.9566
      16 -94.9572      17 -94.9578      18 -94.9564      19 -94.9556      20 -94.9550
      21 -94.9548      22 -94.9572      23 -94.9574      24 -94.9558      25 -94.9566
      26 -94.9577      27 -94.9569

 E-fermi :  -2.9836     XC(G=0):  -2.5882     alpha+bet : -2.3995

[...]

 k-point    34 :       0.5000    0.5000    0.0000
  band No.  band energies     occupation
      1     -17.4168      2.00000
      2     -17.4159      2.00000
      3     -16.7665      2.00000
      4     -16.6123      2.00000
      5     -16.4659      2.00000
      6     -16.4647      2.00000
      7     -16.2914      2.00000
      8     -16.0329      2.00000
      9     -16.0299      2.00000
     10     -15.9898      2.00000
     11     -15.9893      2.00000
     12     -15.8609      2.00000
     13     -15.8600      2.00000
     14     -15.6672      2.00000
     15     -15.6663      2.00000
     16     -15.5973      2.00000
     17     -15.5972      2.00000
     18     -15.4674      2.00000
     19      -9.7909      2.00000
     20      -9.2261      2.00000
     21      -9.2259      2.00000
     22      -9.0327      2.00000
     23      -9.0324      2.00000
     24      -8.7025      2.00000
     25      -8.7018      2.00000
     26      -8.4346      2.00000
     27      -8.3386      2.00000
     28      -8.3382      2.00000
     29      -8.2580      2.00000
     30      -8.2574      2.00000
     31      -8.1492      2.00000
     32      -8.0213      2.00000
     33      -7.8632      2.00000
     34      -7.6894      2.00000
     35      -7.6352      2.00000
     36      -7.6329      2.00000
     37      -7.6167      2.00000
     38      -7.4939      2.00000
     39      -7.2085      2.00000
     40      -7.2074      2.00000
     41      -7.1758      2.00000
     42      -7.0762      2.00000
     43      -7.0753      2.00000
     44      -6.8466      2.00000
     45      -6.8461      2.00000
     46      -6.7215      2.00000
     47      -6.7200      2.00000
     48      -6.6811      2.00000
     49      -6.4613      2.00000
     50      -6.4607      2.00000
     51      -6.3348      2.00000
     52      -6.3341      2.00000
     53      -6.2602      2.00000
     54      -6.2139      2.00000
     55      -6.0967      2.00000
     56      -6.0952      2.00000
     57      -5.9531      2.00000
     58      -5.8117      2.00000
     59      -5.8062      2.00000
     60      -5.8060      2.00000
[...]
    106      -0.2301      0.00000
    107      -0.2290      0.00000
    108      -0.2099      0.00000
    109       0.2964      0.00000
    110       0.2968      0.00000
    111       0.5705      0.00000
    112       1.1752      0.00000
    113       1.2509      0.00000
    114       1.2516      0.00000
    115       1.4406      0.00000
    116       1.5330      0.00000
    117       1.5346      0.00000
    118       2.2555      0.00000
    119       2.2558      0.00000
    120       2.3757      0.00000

 soft charge-density along one line, spin component           1
         0         1         2         3         4         5         6         7         8         9
 total charge-density along one line

------------------------ aborting loop because EDIFF is reached ----------------------------------------

  FORCE on cell =-STRESS in cart. coord.  units (eV):
  Direction    XX          YY          ZZ          XY          YZ          ZX
  Alpha Z    90.72516    90.72516    90.72516
  Ewald   49882.02773 49881.91326-54870.47579     0.00039     0.00001    -0.11123
  Hartree 50589.03176 50589.00658-50269.79239    -0.00007    -0.00006    -0.02215
  E(xc)    -609.21556  -609.20907  -618.61328     0.00002     0.00001     0.00294
  Local  ************************102575.73105    -0.00009     0.00022     0.14950
  n-local  1208.37572  1208.33322  1257.26624    -0.00001     0.00001    -0.00210
  augment  -212.11791  -212.09822  -215.21569    -0.00004    -0.00003     0.00651
  Kinetic  2015.69512  2015.65909  2048.65372    -0.00009     0.00016    -0.03567
  Fock        0.00000     0.00000     0.00000     0.00000     0.00000     0.00000
  Total       0.13399     0.14330    -1.72098     0.00011     0.00033    -0.01219
  in kB       0.09098     0.09729    -1.16850     0.00008     0.00022    -0.00828

 VOLUME and BASIS-vectors are now :
  energy-cutoff  :      280.00
  volume of cell :     2359.71
      direct lattice vectors                 reciprocal lattice vectors
     8.253160483  4.765277586  0.000000000     0.060582838  0.104925706  0.000000000
    -8.253157994  4.765273920  0.000000000    -0.060582884  0.104925738  0.000000000
     0.000000000  0.000000000 30.000000000     0.000000000  0.000000000  0.033333333

  length of vectors
     9.530085437  9.530081448 30.000000000     0.121159746  0.121159797  0.033333333

 FORCES acting on ions
    electron-ion (+dipol)            ewald-force                    non-local-force                 convergence-correction
   -.148E-01 0.734E-01 0.268E-01   0.114E-01 -.769E-01 -.249E-01   -.353E-03 0.372E-03 0.446E-03   0.329E-02 0.364E-02 -.214E-02
   0.450E-02 0.809E-01 0.179E-02   0.198E-03 -.819E-01 0.219E-03   0.354E-03 0.433E-03 -.112E-02   -.454E-02 0.134E-02 -.771E-03
   0.898E-02 0.767E-01 -.289E-01   -.103E-01 -.723E-01 0.252E-01   -.692E-04 0.853E-03 0.850E-03   0.126E-02 -.397E-02 0.274E-02
   -.101E+00 -.118E+00 -.165E-02   0.972E-01 0.222E-01 0.166E-02   0.948E-03 -.571E-02 -.302E-03   0.138E-02 0.958E-01 -.778E-04
   0.175E+00 0.373E-01 -.107E-02   -.881E-01 0.114E-01 0.128E-02   0.357E-02 0.178E-02 0.127E-03   -.835E-01 -.465E-01 -.451E-04
   -.735E-01 0.218E+00 0.456E-02   -.959E-02 -.163E+00 -.459E-02   -.452E-02 0.294E-03 0.273E-03   0.821E-01 -.492E-01 -.371E-04
   -.969E-01 0.477E-01 -.321E-02   0.986E-01 0.488E-01 0.329E-02   0.137E-02 0.484E-02 0.384E-04   -.378E-02 -.975E-01 -.829E-04
   -.762E-01 -.276E+00 0.493E-02   -.841E-02 0.214E+00 -.509E-02   -.428E-02 -.972E-03 0.172E-03   0.834E-01 0.539E-01 -.169E-04
   0.174E+00 -.944E-01 -.137E-02   -.908E-01 0.492E-01 0.164E-02   0.290E-02 -.200E-02 -.171E-03   -.796E-01 0.421E-01 -.453E-04
   -.111E+01 -.125E+01 0.579E+03   0.780E+00 0.120E+01 -.583E+03   0.304E+00 0.505E-01 0.431E+01   0.373E-01 0.600E-03 -.337E-01
   0.991E+00 -.125E+01 -.579E+03   -.656E+00 0.120E+01 0.583E+03   -.309E+00 0.497E-01 -.431E+01   -.350E-01 0.280E-02 0.317E-01
   0.168E+01 -.297E+00 0.579E+03   -.147E+01 0.405E-01 -.583E+03   -.201E+00 0.231E+00 0.430E+01   -.183E-01 0.317E-01 -.351E-01
   -.169E+01 -.319E+00 -.579E+03   0.146E+01 0.370E-01 0.583E+03   0.200E+00 0.228E+00 -.430E+01   0.390E-01 0.607E-01 0.274E-01
   -.598E+00 0.151E+01 0.579E+03   0.733E+00 -.118E+01 -.583E+03   -.104E+00 -.282E+00 0.431E+01   -.337E-01 -.587E-01 -.265E-01
   0.631E+00 0.142E+01 -.579E+03   -.751E+00 -.112E+01 0.583E+03   0.104E+00 -.284E+00 -.431E+01   0.182E-01 -.269E-01 0.321E-01
   0.167E+01 -.279E+00 0.579E+03   -.143E+01 -.621E-02 -.583E+03   -.202E+00 0.234E+00 0.430E+01   -.351E-01 0.583E-01 -.240E-01
   -.163E+01 -.187E+00 -.579E+03   0.141E+01 -.698E-01 0.583E+03   0.203E+00 0.236E+00 -.431E+01   0.258E-01 0.286E-01 0.259E-01
   -.731E+00 0.127E+01 0.579E+03   0.768E+00 -.111E+01 -.583E+03   -.103E+00 -.282E+00 0.430E+01   0.622E-01 0.106E+00 0.782E-01
   0.695E+00 0.134E+01 -.579E+03   -.732E+00 -.117E+01 0.583E+03   0.104E+00 -.282E+00 -.430E+01   -.635E-01 0.103E+00 -.779E-01
   -.109E+01 -.126E+01 0.578E+03   0.724E+00 0.120E+01 -.583E+03   0.306E+00 0.496E-01 0.431E+01   0.732E-01 0.870E-02 -.205E-01
   0.901E+00 -.126E+01 -.578E+03   -.722E+00 0.120E+01 0.583E+03   -.307E+00 0.498E-01 -.430E+01   0.118E+00 0.851E-02 -.825E-01
   -.575E+00 0.154E+01 0.579E+03   0.689E+00 -.123E+01 -.583E+03   -.102E+00 -.279E+00 0.431E+01   -.140E-01 -.402E-01 -.288E-01
   0.577E+00 0.156E+01 -.579E+03   -.706E+00 -.122E+01 0.583E+03   0.100E+00 -.277E+00 -.430E+01   0.307E-01 -.692E-01 0.227E-01
   -.818E+00 -.125E+01 0.579E+03   0.647E+00 0.120E+01 -.583E+03   0.306E+00 0.504E-01 0.430E+01   -.123E+00 0.100E-02 0.753E-01
   0.113E+01 -.125E+01 -.579E+03   -.772E+00 0.120E+01 0.583E+03   -.300E+00 0.509E-01 -.430E+01   -.699E-01 -.112E-02 0.296E-01
   0.154E+01 -.296E-01 0.579E+03   -.140E+01 -.878E-01 -.583E+03   -.202E+00 0.234E+00 0.430E+01   0.509E-01 -.108E+00 0.824E-01
   -.157E+01 -.974E-01 -.579E+03   0.144E+01 -.218E-01 0.583E+03   0.202E+00 0.235E+00 -.430E+01   -.623E-01 -.107E+00 -.769E-01
   0.211E-03 -.107E-01 0.146E-02   -.626E-13 0.177E-13 -.341E-12   -.269E-03 0.134E-01 -.521E-03   -.127E-04 -.142E-02 -.868E-03

 POSITION                                       TOTAL-FORCE (eV/Angst)
      2.75093      1.58875     -0.00011        -0.000484      0.000506      0.000192
      0.00002      6.35409      0.00001         0.000511      0.000708      0.000111
      5.50218      6.35405      0.00010        -0.000116      0.001312     -0.000111
     -0.00074      3.17648      0.00001        -0.001193     -0.005887     -0.000374
     -5.50166      3.17616     -0.00000         0.006802      0.003923      0.000294
      5.50241      3.17749     -0.00002        -0.005489      0.006224      0.000198
     -0.00069     -0.00165      0.00000        -0.000706      0.003780      0.000031
     -2.75078      4.76271     -0.00002        -0.005503     -0.008684     -0.000005
      2.75148      4.76401      0.00001         0.006170     -0.005159      0.000054
     -0.96693      1.57878     28.45156         0.007992      0.001572      0.001923
      0.96674      1.57882      1.54800        -0.008881      0.001585     -0.000354
     -3.63554      3.13712     28.45094        -0.004691      0.006477     -0.000619
     -1.86658      3.13712      1.54923         0.005040      0.007019     -0.000126
     -6.40192      4.81236     28.45205        -0.002205     -0.008490      0.000188
     -4.60231      4.81242      1.54810         0.002097     -0.008401      0.001101
      1.86643      3.13733     28.45160        -0.005480      0.007460     -0.000550
      3.63565      3.13730      1.54851         0.005252      0.007221      0.002460
     -0.89985      4.81236     28.45137        -0.002900     -0.010461      0.001005
      0.89985      4.81229      1.54830         0.002793     -0.009941     -0.001459
     -3.71773      6.34410     28.45236         0.008998      0.001643      0.001639
     -1.78447      6.34406      1.54806        -0.010438      0.001913     -0.002903
      4.60239      4.81260     28.45147        -0.001816     -0.007376     -0.000418
      6.40184      4.81262      1.54872         0.002060     -0.007982     -0.000607
      1.78439      6.34406     28.45150         0.011024      0.001809      0.002713
      3.71800      6.34405      1.54853        -0.008640      0.001631     -0.003130
     -0.88458      7.90268     28.45089        -0.006475      0.008935     -0.000377
      0.88464      7.90271      1.54882         0.006279      0.008665     -0.000876
    total drift:                               -0.000071      0.001321      0.000068

  FREE ENERGIE OF THE ION-ELECTRON SYSTEM (eV)
  free  energy   TOTEN  =      -191.04761663 eV

  energy  without entropy=     -190.89278139  energy(sigma->0) =     -190.97019901

 d Force = 0.2073293E-03[ 0.139E-03, 0.276E-03]  d Energy = 0.3222340E-03-0.115E-03
 d Force =-0.1802073E+01[-0.180E+01,-0.180E+01]  d Ewald  = 0.2870329E+02-0.305E+02

 Quasi-Newton relaxation of ions (Broydens 2nd method)
  g(Force)  = 0.959E-04   g(Stress)= 0.688E-04

 retain information from N=  2 steps
 eigenvalues of (default step * inverse Hessian matrix)
  average eigenvalue of G=   4.0173
 eigenvalue spectrum of G is  1.3768  6.6577

 reached required accuracy - stopping structural energy minimisation