 vasp.5.4.1 05Feb16 (build Jul 05 2020 17:13:04) complex

 executed on           IFC91_ompi date 2024.04.26  21:26:46

 INCAR:
 POTCAR:   PAW_PBE V 08Apr2002
 POTCAR:   PAW_PBE Mo 08Apr2002
 POTCAR:   PAW_PBE W 08Apr2002
 POTCAR:    PAW_PBE S 17Jan2003

 POTCAR:   PAW_PBE V 08Apr2002
   VRHFIN =V: p6 d4 s1

   TITEL  = PAW_PBE V 08Apr2002
   POMASS =   50.941; ZVAL   =    5.000    mass and valenz
   ENMAX  =  192.543; ENMIN  =  144.408 eV
   QCUT   =   -3.762; QGAM   =    7.524    optimization parameters

   Description
     l     E      TYP  RCUT    TYP  RCUT
     2   .000     23  2.700
     2   .000     23  2.700
     0   .000     23  2.700
     0  2.000     23  2.700
     1   .000     23  2.700
     1  2.000     23  2.700
     3   .000      7   .000

 POTCAR:   PAW_PBE Mo 08Apr2002
   VRHFIN =Mo: 4p5s4d

[...]

 POTCAR:   PAW_PBE W 08Apr2002
   VRHFIN =W : 6s5d

   TITEL  = PAW_PBE W 08Apr2002
   POMASS =  183.850; ZVAL   =    6.000    mass and valenz
   ENMAX  =  223.057; ENMIN  =  167.293 eV
   QCUT   =   -4.049; QGAM   =    8.098    optimization parameters

[...]

 POTCAR:    PAW_PBE S 17Jan2003
   VRHFIN =S : s2p4

   TITEL  = PAW_PBE S 17Jan2003
   POMASS =   32.066; ZVAL   =    6.000    mass and valenz
   ENMAX  =  280.000; ENMIN  =  194.016 eV
   QCUT   =   -4.360; QGAM   =    8.721    optimization parameters

   Description
     l     E      TYP  RCUT    TYP  RCUT
     0   .000     23  1.900
     0   .000     23  1.900
     1   .000     23  1.900
     1   .000     23  1.900
     2   .000     23  1.900

 PAW_PBE V 08Apr2002                    :
 PAW_PBE Mo 08Apr2002                   :
 PAW_PBE W 08Apr2002                    :
  PAW_PBE S 17Jan2003                   :

 POSCAR: crystal structure from VMoWS2 with Hexag
  positions in cartesian coordinates
 exchange correlation table for  LEXCH =        8
   RHO(1)=    0.500       N(1)  =     2000
   RHO(2)=  100.500       N(2)  =     4000

 ion  position               nearest neighbor table
   1  0.333  0.333  0.000-  13 2.34  16 2.34  19 2.36  18 2.36  11 2.36  10 2.36
   2  0.333  0.000  0.000-  11 2.34  20 2.34  17 2.36  16 2.36  15 2.36  14 2.36
   3  0.333  0.667  0.000-  15 2.34  18 2.34  20 2.36  21 2.36  13 2.36  12 2.36
   4  0.667  0.667  0.000-  21 2.34  24 2.34  27 2.36  26 2.36  19 2.36  18 2.36   9 3.34   6 3.34
                             5 3.34   7 3.36
   5  0.667  0.333  0.000-  19 2.34  22 2.34  25 2.36  24 2.36  17 2.36  16 2.36   8 3.34   4 3.34
                             6 3.34   9 3.36
   6  0.667  0.000  0.000-  17 2.34  26 2.34  23 2.36  22 2.36  21 2.36  20 2.36   7 3.34   4 3.34
                             5 3.34   8 3.36
   7  0.000  0.000  0.000-  23 2.34  14 2.34  11 2.36  10 2.36  27 2.36  26 2.36   6 3.34   9 3.34
                             8 3.34   4 3.36
   8  1.000  0.333  0.000-  25 2.34  10 2.34  13 2.36  12 2.36  22 2.36  23 2.36   5 3.34   9 3.34
                             7 3.34   6 3.36
   9  0.000  0.667  0.000-  27 2.34  12 2.34  14 2.36  15 2.36  24 2.36  25 2.36   4 3.34   7 3.34
                             8 3.34   5 3.36
  10  0.111  0.222  0.955-   8 2.34   7 2.36   1 2.36
  11  0.222  0.111  0.045-   2 2.34   7 2.36   1 2.36
  12  0.111  0.556  0.955-   9 2.34   8 2.36   3 2.36
  13  0.222  0.444  0.045-   1 2.34   8 2.36   3 2.36
  14  0.111  0.889  0.955-   7 2.34   9 2.36   2 2.36
  15  0.222  0.777  0.045-   3 2.34   9 2.36   2 2.36
  16  0.444  0.222  0.955-   1 2.34   2 2.36   5 2.36
  17  0.556  0.111  0.045-   6 2.34   2 2.36   5 2.36
  18  0.444  0.556  0.955-   3 2.34   1 2.36   4 2.36
  19  0.556  0.444  0.045-   5 2.34   1 2.36   4 2.36
  20  0.444  0.889  0.955-   2 2.34   3 2.36   6 2.36
  21  0.556  0.777  0.045-   4 2.34   3 2.36   6 2.36
  22  0.777  0.222  0.955-   5 2.34   6 2.36   8 2.36
  23  0.889  0.111  0.045-   7 2.34   6 2.36   8 2.36
  24  0.777  0.556  0.955-   4 2.34   5 2.36   9 2.36
  25  0.889  0.444  0.045-   8 2.34   5 2.36   9 2.36
  26  0.777  0.889  0.955-   6 2.34   4 2.36   7 2.36
  27  0.889  0.777  0.045-   9 2.34   4 2.36   7 2.36

IMPORTANT INFORMATION: All symmetrisations will be switched off!
NOSYMM: (Re-)initialisation of all symmetry stuff for point group C_1.

 KPOINTS: K-POINTS 	#supercell of CrS2 in hexagona

Automatic generation of k-mesh.
Space group operators:
 irot       det(A)        alpha          n_x          n_y          n_z        tau_x        tau_y        tau_z
    1     1.000000     0.000000     1.000000     0.000000     0.000000     0.000000     0.000000     0.000000

 Subroutine IBZKPT returns following result:

 Found     34 irreducible k-points:

 Following reciprocal coordinates:
            Coordinates               Weight
  0.000000  0.000000  0.000000      1.000000
  0.125000  0.000000  0.000000      2.000000
  0.250000  0.000000  0.000000      2.000000
  0.375000  0.000000  0.000000      2.000000
  0.500000  0.000000  0.000000      1.000000
  0.000000  0.125000  0.000000      2.000000
  0.125000  0.125000  0.000000      2.000000
  0.250000  0.125000  0.000000      2.000000
  0.375000  0.125000  0.000000      2.000000
  0.500000  0.125000  0.000000      2.000000
 -0.375000  0.125000  0.000000      2.000000
 -0.250000  0.125000  0.000000      2.000000
 -0.125000  0.125000  0.000000      2.000000
  0.000000  0.250000  0.000000      2.000000
  0.125000  0.250000  0.000000      2.000000
  0.250000  0.250000  0.000000      2.000000
  0.375000  0.250000  0.000000      2.000000
  0.500000  0.250000  0.000000      2.000000
 -0.375000  0.250000  0.000000      2.000000
 -0.250000  0.250000  0.000000      2.000000
 -0.125000  0.250000  0.000000      2.000000
 -0.000000  0.375000  0.000000      2.000000
  0.125000  0.375000  0.000000      2.000000
  0.250000  0.375000  0.000000      2.000000
  0.375000  0.375000  0.000000      2.000000
  0.500000  0.375000  0.000000      2.000000
 -0.375000  0.375000  0.000000      2.000000
 -0.250000  0.375000  0.000000      2.000000
 -0.125000  0.375000  0.000000      2.000000
  0.000000  0.500000  0.000000      1.000000
  0.125000  0.500000  0.000000      2.000000
  0.250000  0.500000  0.000000      2.000000
  0.375000  0.500000  0.000000      2.000000
  0.500000  0.500000  0.000000      1.000000

 Following cartesian coordinates:
            Coordinates               Weight
  0.000000  0.000000  0.000000      1.000000
  0.007209  0.012401  0.000000      2.000000
  0.014418  0.024802  0.000000      2.000000
  0.021626  0.037202  0.000000      2.000000
  0.028835  0.049603  0.000000      1.000000
 -0.007209  0.012401  0.000000      2.000000
  0.000000  0.024802  0.000000      2.000000
  0.007209  0.037202  0.000000      2.000000
  0.014418  0.049603  0.000000      2.000000
  0.021626  0.062004  0.000000      2.000000
 -0.028835 -0.024802  0.000000      2.000000
 -0.021626 -0.012401  0.000000      2.000000
 -0.014418  0.000000  0.000000      2.000000
 -0.014418  0.024802  0.000000      2.000000
 -0.007209  0.037202  0.000000      2.000000
  0.000000  0.049603  0.000000      2.000000
  0.007209  0.062004  0.000000      2.000000
  0.014418  0.074405  0.000000      2.000000
 -0.036044 -0.012401  0.000000      2.000000
 -0.028835  0.000000  0.000000      2.000000
 -0.021626  0.012401  0.000000      2.000000
 -0.021626  0.037202  0.000000      2.000000
 -0.014418  0.049603  0.000000      2.000000
 -0.007209  0.062004  0.000000      2.000000
  0.000000  0.074405  0.000000      2.000000
  0.007209  0.086806  0.000000      2.000000
 -0.043253  0.000000  0.000000      2.000000
 -0.036044  0.012401  0.000000      2.000000
 -0.028835  0.024802  0.000000      2.000000
 -0.028835  0.049603  0.000000      1.000000
 -0.021626  0.062004  0.000000      2.000000
 -0.014418  0.074405  0.000000      2.000000
 -0.007209  0.086806  0.000000      2.000000
  0.000000  0.099206  0.000000      1.000000

 I would recommend the setting:
   dimension x,y,z NGX =    41 NGY =   41 NGZ =  123
 SYSTEM =  unknown system
 POSCAR =  crystal structure from VMoWS2 with Hexag

 Startparameter for this run:
   NWRITE =      2    write-flag & timer
   PREC   = normal    normal or accurate (medium, high low for compatibility)
   ISTART =      0    job   : 0-new  1-cont  2-samecut
   ICHARG =      2    charge: 1-file 2-atom 10-const
   ISPIN  =      1    spin polarized calculation?
   LNONCOLLINEAR =      F non collinear calculations
   LSORBIT =      F    spin-orbit coupling
   INIWAV =      1    electr: 0-lowe 1-rand  2-diag
   LASPH  =      F    aspherical Exc in radial PAW
   METAGGA=      F    non-selfconsistent MetaGGA calc.

 Electronic Relaxation 1
   ENCUT  =  280.0 eV  20.58 Ry    4.54 a.u.  13.68 13.68 40.93*2*pi/ulx,y,z
   ENINI  =  280.0     initial cutoff
   ENAUG  =  373.4 eV  augmentation charge cutoff
   NELM   =     60;   NELMIN=  2; NELMDL= -5     # of ELM steps
   EDIFF  = 0.1E-03   stopping-criterion for ELM
   LREAL  =      F    real-space projection
   NLSPLINE    = F    spline interpolate recip. space projectors
   LCOMPAT=      F    compatible to vasp.4.4
   GGA_COMPAT  = T    GGA compatible to vasp.4.4-vasp.4.6
   LMAXPAW     = -100 max onsite density
   LMAXMIX     =    2 max onsite mixed and CHGCAR
   VOSKOWN=      0    Vosko Wilk Nusair interpolation
   ROPT   =    0.00000   0.00000   0.00000   0.00000
 Ionic relaxation
   EDIFFG = 0.1E-02   stopping-criterion for IOM
   NSW    =    100    number of steps for IOM
   NBLOCK =      1;   KBLOCK =    100    inner block; outer block
   IBRION =      1    ionic relax: 0-MD 1-quasi-New 2-CG
   NFREE  =      0    steps in history (QN), initial steepest desc. (CG)
   ISIF   =      3    stress and relaxation
   IWAVPR =     11    prediction:  0-non 1-charg 2-wave 3-comb
   ISYM   =      0    0-nonsym 1-usesym 2-fastsym
   LCORR  =      T    Harris-Foulkes like correction to forces

   POTIM  = 0.5000    time-step for ionic-motion
   TEIN   =    0.0    initial temperature
   TEBEG  =    0.0;   TEEND  =   0.0 temperature during run
   SMASS  =  -3.00    Nose mass-parameter (am)
   estimated Nose-frequenzy (Omega)   =  0.10E-29 period in steps =****** mass=  -0.230E-26a.u.
   SCALEE = 1.0000    scale energy and forces
   NPACO  =    256;   APACO  = 16.0  distance and # of slots for P.C.
   PSTRESS=    0.0 pullay stress

  Mass of Ions in am
   POMASS =  50.94 95.94183.85 32.07
  Ionic Valenz
   ZVAL   =   5.00  6.00  6.00  6.00
  Atomic Wigner-Seitz radii
  virtual crystal weights
   VCA    =   1.00  1.00  1.00  1.00
   NELECT =     159.0000    total number of electrons
   NUPDOWN=      -1.0000    fix difference up-down

 DOS related values:
   EMIN   =  10.00;   EMAX   =-10.00  energy-range for DOS
   EFERMI =   0.00
   ISMEAR =     0;   SIGMA  =   0.20  broadening in eV -4-tet -1-fermi 0-gaus

 Electronic relaxation 2 (details)
   IALGO  =     38    algorithm
   LDIAG  =      T    sub-space diagonalisation (order eigenvalues)
   LSUBROT=      F    optimize rotation matrix (better conditioning)
   TURBO    =      0    0=normal 1=particle mesh
   IRESTART =      0    0=no restart 2=restart with 2 vectors
   NREBOOT  =      0    no. of reboots
   NMIN     =      0    reboot dimension
   EREF     =   0.00    reference energy to select bands
[...]
     -6.74900      5.03900     28.66200         0.475858      0.584339     -2.138386
     -4.81100      5.03900      1.33800         0.239895      0.525250      1.382722
      1.92100      3.35900     28.66200        -0.317942     -0.657507     -1.427823
      3.85900      3.35900      1.33800        -0.527572     -0.693337      2.133869
     -0.96900      5.03900     28.66200        -0.317911     -0.658955     -1.428446
      0.96900      5.03900      1.33800        -0.526424     -0.694629      2.133623
     -3.85900      6.71900     28.66200        -0.317350     -0.657986     -1.428347
     -1.92100      6.71900      1.33800        -0.528097     -0.693231      2.134311
      4.81100      5.03900     28.66200         0.188115      0.125821     -2.916809
      6.74900      5.03900      1.33800        -0.028894      0.176958      2.923321
      1.92100      6.71900     28.66200         0.189975      0.125994     -2.916769
      3.85900      6.71900      1.33800        -0.030583      0.177594      2.923619
     -0.96900      8.39900     28.66200         0.188165      0.127448     -2.916734
      0.96900      8.39900      1.33800        -0.029046      0.178885      2.923452
    total drift:                                0.001460      0.000897     -0.000894

  FREE ENERGIE OF THE ION-ELECTRON SYSTEM (eV)
  free  energy   TOTEN  =      -186.82703655 eV

  energy  without entropy=     -186.48180728  energy(sigma->0) =     -186.65442191

 Quasi-Newton relaxation of ions (Broydens 2nd method)
  g(Force)  = 0.475E+01   g(Stress)= 0.352E+00

 Reset! Starting new Quasi-Newton update for ions

[...]

 d Force = 0.2416095E+01[ 0.762E-01, 0.476E+01]  d Energy = 0.1845424E+01 0.571E+00
 d Force = 0.9599305E+03[ 0.943E+03, 0.977E+03]  d Ewald  = 0.2517005E+04-0.156E+04

[...]

 retain information from N=  1 steps
 eigenvalues of (default step * inverse Hessian matrix)
  average eigenvalue of G=   0.2409
 eigenvalue spectrum of G is  0.2409

[...]

 d Force = 0.3831781E-01[ 0.381E-01, 0.385E-01]  d Energy = 0.1105239E+01-0.107E+01
 d Force =-0.3376853E+01[-0.345E+01,-0.330E+01]  d Ewald  =-0.1928796E+04 0.193E+04

[...]

 d Force = 0.5054553E+00[ 0.450E+00, 0.561E+00]  d Energy = 0.1042214E+01-0.537E+00
 d Force = 0.4140069E+03[ 0.424E+03, 0.404E+03]  d Ewald  =-0.1550659E+04 0.196E+04

[...]

 d Force = 0.1030034E+00[ 0.102E+00, 0.104E+00]  d Energy = 0.1037577E+00-0.754E-03
 d Force =-0.5669531E+01[-0.565E+01,-0.569E+01]  d Ewald  = 0.2054055E+00-0.587E+01

[...]

 d Force =-0.1348523E-01[-0.372E-01, 0.102E-01]  d Energy =-0.1338371E-01-0.102E-03
 d Force =-0.1514187E+02[-0.153E+02,-0.150E+02]  d Ewald  =-0.1247447E+03 0.110E+03

[...]

 d Force = 0.2837948E-02[ 0.254E-02, 0.314E-02]  d Energy = 0.2649457E-02 0.188E-03
 d Force = 0.1396114E+01[ 0.141E+01, 0.138E+01]  d Ewald  = 0.2937392E+02-0.280E+02

[...]

 d Force = 0.4064730E-02[ 0.305E-02, 0.508E-02]  d Energy = 0.3929377E-02 0.135E-03
 d Force =-0.3190062E+01[-0.306E+01,-0.332E+01]  d Ewald  =-0.2091376E+01-0.110E+01

[...]

 d Force = 0.9279947E-03[ 0.745E-03, 0.111E-02]  d Energy = 0.1003296E-02-0.753E-04
 d Force = 0.2757287E+00[ 0.285E+00, 0.267E+00]  d Ewald  =-0.3991805E+01 0.427E+01

[...]

 FEWALD executed in parallel

[...]

 eigenvalue-minimisations  :  8560
 total energy-change (2. order) : 0.2534932E-03  (-0.3379246E-04)
 number of electron     158.9999803 magnetization
 augmentation part       -4.2401289 magnetization

 Broyden mixing:
  rms(total) = 0.37387E-02    rms(broyden)= 0.37362E-02
  rms(prec ) = 0.39806E-02
  weight for this iteration     100.00

 eigenvalues of (default mixing * dielectric matrix)
  average eigenvalue GAMMA=   0.8750
  1.6065  0.8153  0.2032

[...]

----------------------------------------- Iteration   22(   5)  ---------------------------------------

 eigenvalue-minimisations  :  6760
 total energy-change (2. order) :-0.5844970E-04  (-0.1603815E-04)
 number of electron     158.9999803 magnetization
 augmentation part       -4.2401289 magnetization

 Free energy of the ion-electron system (eV)
  alpha Z        PSCENC =        89.47789135
  Ewald energy   TEWEN  =     44369.95705441
  -Hartree energ DENC   =    -50377.50623400
  -exchange      EXHF   =         0.00000000
  -V(xc)+E(xc)   XCENC  =      -233.54166321
  PAW double counting   =      4098.85149105    -3514.91615255
  entropy T*S    EENTRO =        -0.14054502
  eigenvalues    EBANDS =     -1386.06651813
  atomic energy  EATOM  =      6761.44252427
  Solvation  Ediel_sol  =         0.00000000
  free energy    TOTEN  =      -192.44215183 eV

  energy without entropy =     -192.30160681  energy(sigma->0) =     -192.37187932

 average (electrostatic) potential at core
  the test charge radii are     1.2064  1.2296  1.1823  0.9698
  (the norm of the test charge is              1.0000)
       1 -49.8564       2 -49.8523       3 -49.8674       4 -47.1067       5 -47.1054
       6 -47.1084       7 -49.5337       8 -49.5340       9 -49.5329      10 -94.6881
      11 -94.5714      12 -94.6883      13 -94.5718      14 -94.6881      15 -94.5722
      16 -94.9811      17 -95.0773      18 -94.9811      19 -95.0777      20 -94.9814
      21 -95.0767      22 -95.1845      23 -95.2266      24 -95.1845      25 -95.2266
      26 -95.1848      27 -95.2263

 E-fermi :  -3.2415     XC(G=0):  -2.5573     alpha+bet : -2.3665

[...]

 k-point    34 :       0.5000    0.5000    0.0000
  band No.  band energies     occupation
      1     -17.4264      2.00000
      2     -17.4263      2.00000
      3     -16.7124      2.00000
      4     -16.7123      2.00000
      5     -16.5698      2.00000
      6     -16.5696      2.00000
      7     -16.2142      2.00000
      8     -16.1955      2.00000
      9     -16.1705      2.00000
     10     -16.1701      2.00000
     11     -15.7969      2.00000
     12     -15.7586      2.00000
     13     -15.7583      2.00000
     14     -15.6811      2.00000
     15     -15.4909      2.00000
     16     -15.4904      2.00000
     17     -15.4583      2.00000
     18     -15.2666      2.00000
     19      -9.8261      2.00000
     20      -9.4002      2.00000
     21      -9.1914      2.00000
     22      -9.1912      2.00000
     23      -8.7678      2.00000
     24      -8.7675      2.00000
     25      -8.7449      2.00000
     26      -8.5581      2.00000
     27      -8.5576      2.00000
     28      -8.3749      2.00000
     29      -8.1526      2.00000
     30      -8.0809      2.00000
     31      -8.0773      2.00000
     32      -8.0770      2.00000
     33      -7.7864      2.00000
     34      -7.7855      2.00000
     35      -7.7266      2.00000
     36      -7.7097      2.00000
     37      -7.7092      2.00000
     38      -7.5225      2.00000
     39      -7.5221      2.00000
     40      -7.4290      2.00000
     41      -7.0414      2.00000
     42      -7.0106      2.00000
     43      -7.0105      2.00000
     44      -6.8570      2.00000
     45      -6.7465      2.00000
     46      -6.7457      2.00000
     47      -6.6402      2.00000
     48      -6.5751      2.00000
     49      -6.5747      2.00000
     50      -6.5638      2.00000
     51      -6.3574      2.00000
     52      -6.3114      2.00000
     53      -6.3108      2.00000
     54      -6.2626      2.00000
     55      -6.0802      2.00000
     56      -6.0793      2.00000
     57      -5.9856      2.00000
     58      -5.8635      2.00000
     59      -5.8634      2.00000
     60      -5.7290      2.00000
[...]
    106      -0.2896      0.00000
    107      -0.2883      0.00000
    108      -0.0690      0.00000
    109      -0.0674      0.00000
    110       0.2512      0.00000
    111       0.3779      0.00000
    112       0.5188      0.00000
    113       0.5194      0.00000
    114       1.0675      0.00000
    115       1.0676      0.00000
    116       1.0708      0.00000
    117       1.8384      0.00000
    118       2.2620      0.00000
    119       2.2621      0.00000
    120       2.4138      0.00000

 soft charge-density along one line, spin component           1
         0         1         2         3         4         5         6         7         8         9
 total charge-density along one line

------------------------ aborting loop because EDIFF is reached ----------------------------------------

  FORCE on cell =-STRESS in cart. coord.  units (eV):
  Direction    XX          YY          ZZ          XY          YZ          ZX
  Alpha Z    89.47789    89.47789    89.47789
  Ewald   49332.22402 49280.99800-54243.28192   -44.28848    20.65408    11.85358
  Hartree 50037.48719 50005.22415-49665.63333   -27.91334    12.26369     7.06563
  E(xc)    -609.63404  -610.70628  -617.72812    -0.93047    -0.96018    -0.55352
  Local  ************************101346.73427    65.08716   -41.66296   -23.96506
  n-local  1213.87704  1216.06151  1248.34716     1.93017    -2.83153    -1.64601
  augment  -213.38534  -213.02745  -214.85279     0.29930     0.54178     0.31827
  Kinetic  2008.36657  2015.09282  2054.87897     5.83760    11.83855     6.83700
  Fock        0.00000     0.00000     0.00000     0.00000     0.00000     0.00000
  Total      -0.17096    -0.14571    -2.05787     0.02194    -0.15656    -0.09011
  in kB      -0.11448    -0.09758    -1.37803     0.01469    -0.10484    -0.06034

 VOLUME and BASIS-vectors are now :
  energy-cutoff  :      280.00
  volume of cell :     2392.61
      direct lattice vectors                 reciprocal lattice vectors
     8.310440178  4.827291950  0.000000000     0.059985044  0.103888036  0.000000000
    -8.285444289  4.784022841  0.000000000    -0.060527579  0.104201450  0.000000000
     0.000000000  0.000000000 30.000000000     0.000000000  0.000000000  0.033333333

  length of vectors
     9.610731685  9.567416663 30.000000000     0.119962201  0.120505311  0.033333333

 FORCES acting on ions
    electron-ion (+dipol)            ewald-force                    non-local-force                 convergence-correction
   0.119E+02 0.207E+02 0.139E+02   -.128E+02 -.221E+02 -.138E+02   0.761E+00 0.133E+01 -.162E+00   0.871E-01 -.984E-02 -.216E-01
   0.120E+02 0.207E+02 0.140E+02   -.127E+02 -.221E+02 -.138E+02   0.765E+00 0.132E+01 -.161E+00   -.397E-01 0.581E-01 -.244E-01
   0.119E+02 0.207E+02 0.140E+02   -.127E+02 -.220E+02 -.138E+02   0.775E+00 0.134E+01 -.161E+00   0.846E-03 0.354E-01 -.193E-01
   0.700E+01 0.120E+02 0.770E+01   -.691E+01 -.117E+02 -.778E+01   -.127E+00 -.207E+00 0.808E-01   0.331E-01 -.417E-01 0.427E-02
   0.689E+01 0.120E+02 0.771E+01   -.672E+01 -.117E+02 -.777E+01   -.115E+00 -.201E+00 0.827E-01   -.506E-01 -.105E+00 -.856E-02
   0.689E+01 0.120E+02 0.768E+01   -.669E+01 -.118E+02 -.776E+01   -.113E+00 -.207E+00 0.819E-01   -.720E-01 -.839E-02 0.999E-03
   -.177E+02 -.307E+02 -.235E+02   0.181E+02 0.314E+02 0.232E+02   -.421E+00 -.725E+00 0.325E+00   0.224E-01 0.181E-01 0.748E-02
   -.178E+02 -.307E+02 -.235E+02   0.182E+02 0.314E+02 0.232E+02   -.420E+00 -.728E+00 0.323E+00   -.371E-02 -.380E-01 0.159E-03
   -.177E+02 -.307E+02 -.234E+02   0.182E+02 0.315E+02 0.231E+02   -.417E+00 -.724E+00 0.326E+00   -.354E-01 -.900E-02 0.111E-02
   -.950E+01 -.164E+02 0.496E+03   0.962E+01 0.167E+02 -.501E+03   -.186E+00 -.323E+00 0.512E+01   0.707E-01 0.480E-01 -.175E-03
   0.148E+01 0.257E+01 -.488E+03   -.111E+01 -.186E+01 0.493E+03   -.452E+00 -.784E+00 -.477E+01   0.861E-01 0.816E-01 -.765E-01
   -.945E+01 -.163E+02 0.496E+03   0.966E+01 0.167E+02 -.501E+03   -.183E+00 -.319E+00 0.513E+01   -.259E-01 -.254E-01 -.638E-01
   0.142E+01 0.264E+01 -.488E+03   -.107E+01 -.182E+01 0.493E+03   -.451E+00 -.775E+00 -.478E+01   0.104E+00 -.316E-01 0.268E-01
   -.944E+01 -.164E+02 0.496E+03   0.959E+01 0.166E+02 -.501E+03   -.188E+00 -.326E+00 0.512E+01   0.309E-01 0.109E+00 0.210E-01
   0.161E+01 0.254E+01 -.488E+03   -.105E+01 -.186E+01 0.493E+03   -.448E+00 -.781E+00 -.478E+01   -.990E-01 0.107E+00 0.157E-02
   0.121E+02 0.210E+02 0.588E+03   -.127E+02 -.219E+02 -.591E+03   0.566E+00 0.984E+00 0.319E+01   0.185E-01 -.427E-01 0.132E+00
   0.954E+01 0.165E+02 -.588E+03   -.105E+02 -.182E+02 0.591E+03   0.102E+01 0.176E+01 -.304E+01   -.722E-01 -.531E-01 -.103E+00
   0.120E+02 0.209E+02 0.588E+03   -.127E+02 -.219E+02 -.591E+03   0.561E+00 0.984E+00 0.321E+01   0.120E+00 -.375E-01 -.983E-03
   0.951E+01 0.165E+02 -.588E+03   -.105E+02 -.182E+02 0.591E+03   0.102E+01 0.176E+01 -.304E+01   0.122E-01 -.553E-01 -.727E-01
   0.122E+02 0.209E+02 0.588E+03   -.126E+02 -.219E+02 -.591E+03   0.571E+00 0.979E+00 0.320E+01   -.135E+00 0.857E-01 0.263E-01
   0.943E+01 0.164E+02 -.588E+03   -.105E+02 -.182E+02 0.591E+03   0.101E+01 0.175E+01 -.305E+01   0.319E-01 0.597E-01 0.451E-01
   -.401E+01 -.695E+01 0.622E+03   0.460E+01 0.793E+01 -.625E+03   -.532E+00 -.916E+00 0.358E+01   -.478E-01 -.522E-01 0.377E-02
   -.111E+02 -.192E+02 -.629E+03   0.114E+02 0.197E+02 0.633E+03   -.261E+00 -.453E+00 -.402E+01   -.389E-02 -.225E-01 0.182E-01
   -.402E+01 -.695E+01 0.622E+03   0.457E+01 0.793E+01 -.626E+03   -.529E+00 -.916E+00 0.358E+01   -.202E-01 -.560E-01 0.784E-02
   -.111E+02 -.192E+02 -.629E+03   0.114E+02 0.197E+02 0.633E+03   -.262E+00 -.451E+00 -.402E+01   -.302E-01 -.444E-01 0.161E-01
   -.401E+01 -.694E+01 0.622E+03   0.455E+01 0.788E+01 -.625E+03   -.529E+00 -.919E+00 0.358E+01   -.259E-02 -.140E-01 -.682E-02
   -.111E+02 -.193E+02 -.629E+03   0.113E+02 0.197E+02 0.633E+03   -.262E+00 -.452E+00 -.402E+01   -.133E-01 -.152E-01 0.104E-01
   -.111E+01 -.193E+01 -.879E+00   0.426E-13 -.924E-13 0.114E-12   0.115E+01 0.200E+01 0.940E+00   -.342E-01 -.590E-01 -.746E-01

 POSITION                                       TOTAL-FORCE (eV/Angst)
      0.15700      3.46033     -0.05298        -0.012893     -0.007113     -0.014190
      2.91888      1.86620     -0.05322        -0.005056     -0.017730     -0.012291
     -2.60529      5.05535     -0.05311         0.005411      0.002659     -0.010878
      0.05661      6.47409     -0.02245        -0.003046      0.005352      0.008137
      2.81698      4.87985     -0.02248         0.008872      0.016701      0.011002
      5.57870      3.28506     -0.02242         0.009850      0.005219      0.010681
     -0.15841     -0.27532      0.07193         0.001653      0.004964      0.019353
      5.39006      6.14686      0.07191         0.001643      0.001583      0.018497
     -5.68205      2.91432      0.07168         0.002814      0.004008      0.022145
     -0.91233      1.60829     28.69520        -0.003944     -0.007914     -0.001673
      0.93448      1.61755      1.28518         0.001251      0.006410     -0.000406
     -3.67400      3.20317     28.69509        -0.002823     -0.004626     -0.000429
     -1.82767      3.21231      1.28521         0.002914      0.010145     -0.004382
     -6.43578      4.79809     28.69532        -0.006268     -0.010333     -0.004579
     -4.58945      4.80724      1.28524         0.008100      0.004968     -0.003741
      1.85116      3.20602     28.39937         0.006138      0.014675     -0.022306
      3.69127      3.20446      1.57034        -0.007861     -0.013873     -0.008141
     -0.91037      4.80051     28.39944         0.002412      0.014262     -0.016131
      0.92949      4.79885      1.57036        -0.008289     -0.015320     -0.007548
     -3.67248      6.39554     28.39897         0.012936      0.008709     -0.016459
     -1.83199      6.39382      1.57021        -0.014218     -0.023477     -0.019154
      4.60797      4.79197     28.32443         0.004917      0.011484      0.013092
      6.44396      4.78298      1.72927        -0.005812     -0.008423      0.005462
      1.84645      6.38684     28.32410         0.005953      0.008359      0.011170
      3.68217      6.37793      1.72932        -0.005952     -0.009957      0.004969
     -0.91560      7.98120     28.32471         0.005350      0.008427      0.011992
      0.92058      7.97240      1.72934        -0.004051     -0.009158      0.005808
    total drift:                                0.004133      0.006727     -0.013580

  FREE ENERGIE OF THE ION-ELECTRON SYSTEM (eV)
  free  energy   TOTEN  =      -192.44215183 eV

  energy  without entropy=     -192.30160681  energy(sigma->0) =     -192.37187932

 d Force = 0.1005684E-02[ 0.852E-03, 0.116E-02]  d Energy = 0.7068063E-03 0.299E-03
 d Force =-0.1293594E+00[-0.112E+00,-0.147E+00]  d Ewald  = 0.1190218E+02-0.120E+02

 Quasi-Newton relaxation of ions (Broydens 2nd method)
  g(Force)  = 0.409E-03   g(Stress)= 0.919E-04

 retain information from N=  1 steps
 eigenvalues of (default step * inverse Hessian matrix)
  average eigenvalue of G=   0.2831
 eigenvalue spectrum of G is  0.2831

 reached required accuracy - stopping structural energy minimisation