 vasp.5.4.1 05Feb16 (build Jul 05 2020 17:13:04) complex

 executed on           IFC91_ompi date 2024.04.21  03:17:25

 INCAR:
 POTCAR:   PAW_PBE V 08Apr2002
 POTCAR:   PAW_PBE Mo 08Apr2002
 POTCAR:   PAW_PBE W 08Apr2002
 POTCAR:    PAW_PBE S 17Jan2003

 POTCAR:   PAW_PBE V 08Apr2002
   VRHFIN =V: p6 d4 s1

   TITEL  = PAW_PBE V 08Apr2002
   POMASS =   50.941; ZVAL   =    5.000    mass and valenz
   ENMAX  =  192.543; ENMIN  =  144.408 eV
   QCUT   =   -3.762; QGAM   =    7.524    optimization parameters

   Description
     l     E      TYP  RCUT    TYP  RCUT
     2   .000     23  2.700
     2   .000     23  2.700
     0   .000     23  2.700
     0  2.000     23  2.700
     1   .000     23  2.700
     1  2.000     23  2.700
     3   .000      7   .000

 POTCAR:   PAW_PBE Mo 08Apr2002
   VRHFIN =Mo: 4p5s4d

[...]

 POTCAR:   PAW_PBE W 08Apr2002
   VRHFIN =W : 6s5d

   TITEL  = PAW_PBE W 08Apr2002
   POMASS =  183.850; ZVAL   =    6.000    mass and valenz
   ENMAX  =  223.057; ENMIN  =  167.293 eV
   QCUT   =   -4.049; QGAM   =    8.098    optimization parameters

[...]

 POTCAR:    PAW_PBE S 17Jan2003
   VRHFIN =S : s2p4

   TITEL  = PAW_PBE S 17Jan2003
   POMASS =   32.066; ZVAL   =    6.000    mass and valenz
   ENMAX  =  280.000; ENMIN  =  194.016 eV
   QCUT   =   -4.360; QGAM   =    8.721    optimization parameters

   Description
     l     E      TYP  RCUT    TYP  RCUT
     0   .000     23  1.900
     0   .000     23  1.900
     1   .000     23  1.900
     1   .000     23  1.900
     2   .000     23  1.900

 PAW_PBE V 08Apr2002                    :
 PAW_PBE Mo 08Apr2002                   :
 PAW_PBE W 08Apr2002                    :
  PAW_PBE S 17Jan2003                   :

 POSCAR: crystal structure from VMoWS2 with Hexag
  positions in cartesian coordinates
 exchange correlation table for  LEXCH =        8
   RHO(1)=    0.500       N(1)  =     2000
   RHO(2)=  100.500       N(2)  =     4000

 ion  position               nearest neighbor table
   1  0.333  0.000  0.000-  11 2.34  20 2.34  17 2.36  16 2.36  15 2.36  14 2.36
   2  0.000  0.000  0.000-  23 2.34  14 2.34  11 2.36  10 2.36  27 2.36  26 2.36
   3  0.333  0.333  0.000-  13 2.34  16 2.34  19 2.36  18 2.36  11 2.36  10 2.36
   4  0.667  0.667  0.000-  21 2.34  24 2.34  27 2.36  26 2.36  19 2.36  18 2.36   8 3.34   6 3.34
                             9 3.34   5 3.34
   5  0.333  0.667  0.000-  15 2.34  18 2.34  20 2.36  21 2.36  13 2.36  12 2.36   8 3.34   4 3.34
                             6 3.36   7 3.36
   6  0.667  0.000  0.000-  17 2.34  26 2.34  23 2.36  22 2.36  21 2.36  20 2.36   4 3.34   9 3.34
                             7 3.36   5 3.36
   7  1.000  0.333  0.000-  25 2.34  10 2.34  13 2.36  12 2.36  22 2.36  23 2.36   9 3.34   8 3.34
                             6 3.36   5 3.36
   8  0.000  0.667  0.000-  27 2.34  12 2.34  14 2.36  15 2.36  24 2.36  25 2.36   4 3.34   7 3.34
                             5 3.34   9 3.36
   9  0.667  0.333  0.000-  19 2.34  22 2.34  25 2.36  24 2.36  17 2.36  16 2.36   7 3.34   4 3.34
                             6 3.34   8 3.36
  10  0.111  0.222  0.955-   7 2.34   2 2.36   3 2.36
  11  0.222  0.111  0.045-   1 2.34   2 2.36   3 2.36
  12  0.111  0.556  0.955-   8 2.34   7 2.36   5 2.36
  13  0.222  0.444  0.045-   3 2.34   7 2.36   5 2.36
  14  0.111  0.889  0.955-   2 2.34   8 2.36   1 2.36
  15  0.222  0.777  0.045-   5 2.34   8 2.36   1 2.36
  16  0.444  0.222  0.955-   3 2.34   1 2.36   9 2.36
  17  0.556  0.111  0.045-   6 2.34   1 2.36   9 2.36
  18  0.444  0.556  0.955-   5 2.34   3 2.36   4 2.36
  19  0.556  0.444  0.045-   9 2.34   3 2.36   4 2.36
  20  0.444  0.889  0.955-   1 2.34   5 2.36   6 2.36
  21  0.556  0.777  0.045-   4 2.34   5 2.36   6 2.36
  22  0.777  0.222  0.955-   9 2.34   6 2.36   7 2.36
  23  0.889  0.111  0.045-   2 2.34   6 2.36   7 2.36
  24  0.777  0.556  0.955-   4 2.34   9 2.36   8 2.36
  25  0.889  0.444  0.045-   7 2.34   9 2.36   8 2.36
  26  0.777  0.889  0.955-   6 2.34   4 2.36   2 2.36
  27  0.889  0.777  0.045-   8 2.34   4 2.36   2 2.36

IMPORTANT INFORMATION: All symmetrisations will be switched off!
NOSYMM: (Re-)initialisation of all symmetry stuff for point group C_1.

 KPOINTS: K-POINTS 	#supercell of CrS2 in hexagona

Automatic generation of k-mesh.
Space group operators:
 irot       det(A)        alpha          n_x          n_y          n_z        tau_x        tau_y        tau_z
    1     1.000000     0.000000     1.000000     0.000000     0.000000     0.000000     0.000000     0.000000

 Subroutine IBZKPT returns following result:

 Found     34 irreducible k-points:

 Following reciprocal coordinates:
            Coordinates               Weight
  0.000000  0.000000  0.000000      1.000000
  0.125000  0.000000  0.000000      2.000000
  0.250000  0.000000  0.000000      2.000000
  0.375000  0.000000  0.000000      2.000000
  0.500000  0.000000  0.000000      1.000000
  0.000000  0.125000  0.000000      2.000000
  0.125000  0.125000  0.000000      2.000000
  0.250000  0.125000  0.000000      2.000000
  0.375000  0.125000  0.000000      2.000000
  0.500000  0.125000  0.000000      2.000000
 -0.375000  0.125000  0.000000      2.000000
 -0.250000  0.125000  0.000000      2.000000
 -0.125000  0.125000  0.000000      2.000000
  0.000000  0.250000  0.000000      2.000000
  0.125000  0.250000  0.000000      2.000000
  0.250000  0.250000  0.000000      2.000000
  0.375000  0.250000  0.000000      2.000000
  0.500000  0.250000  0.000000      2.000000
 -0.375000  0.250000  0.000000      2.000000
 -0.250000  0.250000  0.000000      2.000000
 -0.125000  0.250000  0.000000      2.000000
 -0.000000  0.375000  0.000000      2.000000
  0.125000  0.375000  0.000000      2.000000
  0.250000  0.375000  0.000000      2.000000
  0.375000  0.375000  0.000000      2.000000
  0.500000  0.375000  0.000000      2.000000
 -0.375000  0.375000  0.000000      2.000000
 -0.250000  0.375000  0.000000      2.000000
 -0.125000  0.375000  0.000000      2.000000
  0.000000  0.500000  0.000000      1.000000
  0.125000  0.500000  0.000000      2.000000
  0.250000  0.500000  0.000000      2.000000
  0.375000  0.500000  0.000000      2.000000
  0.500000  0.500000  0.000000      1.000000

 Following cartesian coordinates:
            Coordinates               Weight
  0.000000  0.000000  0.000000      1.000000
  0.007209  0.012401  0.000000      2.000000
  0.014418  0.024802  0.000000      2.000000
  0.021626  0.037202  0.000000      2.000000
  0.028835  0.049603  0.000000      1.000000
 -0.007209  0.012401  0.000000      2.000000
  0.000000  0.024802  0.000000      2.000000
  0.007209  0.037202  0.000000      2.000000
  0.014418  0.049603  0.000000      2.000000
  0.021626  0.062004  0.000000      2.000000
 -0.028835 -0.024802  0.000000      2.000000
 -0.021626 -0.012401  0.000000      2.000000
 -0.014418  0.000000  0.000000      2.000000
 -0.014418  0.024802  0.000000      2.000000
 -0.007209  0.037202  0.000000      2.000000
  0.000000  0.049603  0.000000      2.000000
  0.007209  0.062004  0.000000      2.000000
  0.014418  0.074405  0.000000      2.000000
 -0.036044 -0.012401  0.000000      2.000000
 -0.028835  0.000000  0.000000      2.000000
 -0.021626  0.012401  0.000000      2.000000
 -0.021626  0.037202  0.000000      2.000000
 -0.014418  0.049603  0.000000      2.000000
 -0.007209  0.062004  0.000000      2.000000
  0.000000  0.074405  0.000000      2.000000
  0.007209  0.086806  0.000000      2.000000
 -0.043253  0.000000  0.000000      2.000000
 -0.036044  0.012401  0.000000      2.000000
 -0.028835  0.024802  0.000000      2.000000
 -0.028835  0.049603  0.000000      1.000000
 -0.021626  0.062004  0.000000      2.000000
 -0.014418  0.074405  0.000000      2.000000
 -0.007209  0.086806  0.000000      2.000000
  0.000000  0.099206  0.000000      1.000000

 I would recommend the setting:
   dimension x,y,z NGX =    41 NGY =   41 NGZ =  123
 SYSTEM =  unknown system
 POSCAR =  crystal structure from VMoWS2 with Hexag

 Startparameter for this run:
   NWRITE =      2    write-flag & timer
   PREC   = normal    normal or accurate (medium, high low for compatibility)
   ISTART =      0    job   : 0-new  1-cont  2-samecut
   ICHARG =      2    charge: 1-file 2-atom 10-const
   ISPIN  =      1    spin polarized calculation?
   LNONCOLLINEAR =      F non collinear calculations
   LSORBIT =      F    spin-orbit coupling
   INIWAV =      1    electr: 0-lowe 1-rand  2-diag
   LASPH  =      F    aspherical Exc in radial PAW
   METAGGA=      F    non-selfconsistent MetaGGA calc.

 Electronic Relaxation 1
   ENCUT  =  280.0 eV  20.58 Ry    4.54 a.u.  13.68 13.68 40.93*2*pi/ulx,y,z
   ENINI  =  280.0     initial cutoff
   ENAUG  =  373.4 eV  augmentation charge cutoff
   NELM   =     60;   NELMIN=  2; NELMDL= -5     # of ELM steps
   EDIFF  = 0.1E-03   stopping-criterion for ELM
   LREAL  =      F    real-space projection
   NLSPLINE    = F    spline interpolate recip. space projectors
   LCOMPAT=      F    compatible to vasp.4.4
   GGA_COMPAT  = T    GGA compatible to vasp.4.4-vasp.4.6
   LMAXPAW     = -100 max onsite density
   LMAXMIX     =    2 max onsite mixed and CHGCAR
   VOSKOWN=      0    Vosko Wilk Nusair interpolation
   ROPT   =    0.00000   0.00000   0.00000   0.00000
 Ionic relaxation
   EDIFFG = 0.1E-02   stopping-criterion for IOM
   NSW    =    100    number of steps for IOM
   NBLOCK =      1;   KBLOCK =    100    inner block; outer block
   IBRION =      1    ionic relax: 0-MD 1-quasi-New 2-CG
   NFREE  =      0    steps in history (QN), initial steepest desc. (CG)
   ISIF   =      3    stress and relaxation
   IWAVPR =     11    prediction:  0-non 1-charg 2-wave 3-comb
   ISYM   =      0    0-nonsym 1-usesym 2-fastsym
   LCORR  =      T    Harris-Foulkes like correction to forces

   POTIM  = 0.5000    time-step for ionic-motion
   TEIN   =    0.0    initial temperature
   TEBEG  =    0.0;   TEEND  =   0.0 temperature during run
   SMASS  =  -3.00    Nose mass-parameter (am)
   estimated Nose-frequenzy (Omega)   =  0.10E-29 period in steps =****** mass=  -0.230E-26a.u.
   SCALEE = 1.0000    scale energy and forces
   NPACO  =    256;   APACO  = 16.0  distance and # of slots for P.C.
   PSTRESS=    0.0 pullay stress

  Mass of Ions in am
   POMASS =  50.94 95.94183.85 32.07
  Ionic Valenz
   ZVAL   =   5.00  6.00  6.00  6.00
  Atomic Wigner-Seitz radii
  virtual crystal weights
   VCA    =   1.00  1.00  1.00  1.00
   NELECT =     159.0000    total number of electrons
   NUPDOWN=      -1.0000    fix difference up-down

 DOS related values:
   EMIN   =  10.00;   EMAX   =-10.00  energy-range for DOS
   EFERMI =   0.00
   ISMEAR =     0;   SIGMA  =   0.20  broadening in eV -4-tet -1-fermi 0-gaus

 Electronic relaxation 2 (details)
   IALGO  =     38    algorithm
   LDIAG  =      T    sub-space diagonalisation (order eigenvalues)
   LSUBROT=      F    optimize rotation matrix (better conditioning)
   TURBO    =      0    0=normal 1=particle mesh
   IRESTART =      0    0=no restart 2=restart with 2 vectors
   NREBOOT  =      0    no. of reboots
   NMIN     =      0    reboot dimension
   EREF     =   0.00    reference energy to select bands
[...]
     -6.74900      5.03900     28.66200        -0.245693      0.521571     -1.419970
     -4.81100      5.03900      1.33800        -0.628398      0.526713      2.125993
      1.92100      3.35900     28.66200        -0.237850     -0.520479     -1.420222
      3.85900      3.35900      1.33800        -0.630095     -0.526441      2.120218
     -0.96900      5.03900     28.66200         0.516432     -0.679315     -2.174362
      0.96900      5.03900      1.33800        -0.341589     -0.699200      2.127931
     -3.85900      6.71900     28.66200        -0.727628      0.003051     -2.134102
     -1.92100      6.71900      1.33800        -0.120252      0.003071      2.940797
      4.81100      5.03900     28.66200         0.070346      0.105201     -2.863477
      6.74900      5.03900      1.33800         0.658394      0.173119      2.087258
      1.92100      6.71900     28.66200         0.243921      0.001908     -2.859168
      3.85900      6.71900      1.33800        -0.132192      0.001921      2.997101
     -0.96900      8.39900     28.66200         0.515565      0.683874     -2.176882
      0.96900      8.39900      1.33800        -0.341356      0.704950      2.130455
    total drift:                               -0.002290     -0.001369      0.000550

  FREE ENERGIE OF THE ION-ELECTRON SYSTEM (eV)
  free  energy   TOTEN  =      -186.82252251 eV

  energy  without entropy=     -186.48242212  energy(sigma->0) =     -186.65247231

 Quasi-Newton relaxation of ions (Broydens 2nd method)
  g(Force)  = 0.471E+01   g(Stress)= 0.361E+00

 Reset! Starting new Quasi-Newton update for ions

[...]

 d Force = 0.2387195E+01[ 0.529E-01, 0.472E+01]  d Energy = 0.1807771E+01 0.579E+00
 d Force = 0.9587121E+03[ 0.941E+03, 0.977E+03]  d Ewald  = 0.2532696E+04-0.157E+04

[...]

 retain information from N=  1 steps
 eigenvalues of (default step * inverse Hessian matrix)
  average eigenvalue of G=   0.2440
 eigenvalue spectrum of G is  0.2440

[...]

 d Force = 0.3247343E-01[ 0.315E-01, 0.334E-01]  d Energy = 0.1099413E+01-0.107E+01
 d Force =-0.3485043E+01[-0.357E+01,-0.340E+01]  d Ewald  =-0.1933386E+04 0.193E+04

[...]

 d Force = 0.4738293E+00[ 0.418E+00, 0.530E+00]  d Energy = 0.1001414E+01-0.528E+00
 d Force = 0.4108848E+03[ 0.420E+03, 0.401E+03]  d Ewald  =-0.1540170E+04 0.195E+04

[...]

 d Force = 0.4612509E+00[ 0.262E+00, 0.660E+00]  d Energy = 0.7151354E+00-0.254E+00
 d Force = 0.5616109E+03[ 0.576E+03, 0.548E+03]  d Ewald  =-0.1782717E+04 0.234E+04

[...]

 d Force = 0.2467376E-02[ 0.113E-02, 0.381E-02]  d Energy = 0.5529327E-02-0.306E-02
 d Force = 0.4408793E+01[ 0.440E+01, 0.442E+01]  d Ewald  = 0.2060656E+03-0.202E+03

[...]

 d Force = 0.1078505E-01[ 0.101E-01, 0.115E-01]  d Energy = 0.1202125E-01-0.124E-02
 d Force =-0.9768539E+01[-0.975E+01,-0.979E+01]  d Ewald  = 0.8880905E+02-0.986E+02

[...]

 d Force =-0.7903433E-03[-0.119E-02,-0.386E-03]  d Energy = 0.9120937E-04-0.882E-03
 d Force = 0.7224813E+01[ 0.722E+01, 0.723E+01]  d Ewald  = 0.9622721E+02-0.890E+02

[...]

 d Force = 0.4597179E-02[ 0.373E-02, 0.546E-02]  d Energy = 0.4758186E-02-0.161E-03
 d Force =-0.1853711E+02[-0.185E+02,-0.185E+02]  d Ewald  =-0.8913986E+01-0.962E+01

[...]

 FEWALD executed in parallel

[...]

 eigenvalue-minimisations  : 10040
 total energy-change (2. order) : 0.8415201E-03  (-0.1622312E-03)
 number of electron     159.0000108 magnetization
 augmentation part       -4.2501786 magnetization

 Broyden mixing:
  rms(total) = 0.47254E-02    rms(broyden)= 0.47044E-02
  rms(prec ) = 0.51020E-02
  weight for this iteration     100.00

 eigenvalues of (default mixing * dielectric matrix)
  average eigenvalue GAMMA=   0.4045
  0.6642  0.1448

[...]

----------------------------------------- Iteration   17(   4)  ---------------------------------------

 eigenvalue-minimisations  :  7440
 total energy-change (2. order) :-0.4130294E-04  (-0.1656675E-04)
 number of electron     159.0000108 magnetization
 augmentation part       -4.2501786 magnetization

 Free energy of the ion-electron system (eV)
  alpha Z        PSCENC =        88.65745618
  Ewald energy   TEWEN  =     43963.96099465
  -Hartree energ DENC   =    -49971.25628105
  -exchange      EXHF   =         0.00000000
  -V(xc)+E(xc)   XCENC  =      -233.72974598
  PAW double counting   =      4087.33193892    -3503.36046975
  entropy T*S    EENTRO =        -0.20235151
  eigenvalues    EBANDS =     -1384.58640843
  atomic energy  EATOM  =      6761.44252427
  Solvation  Ediel_sol  =         0.00000000
  free energy    TOTEN  =      -191.74234270 eV

  energy without entropy =     -191.53999119  energy(sigma->0) =     -191.64116694

 average (electrostatic) potential at core
  the test charge radii are     1.2064  1.2296  1.1823  0.9698
  (the norm of the test charge is              1.0000)
       1 -50.0382       2 -50.0411       3 -50.0372       4 -47.0942       5 -47.0955
       6 -47.0944       7 -49.4486       8 -49.4477       9 -49.4469      10 -94.7339
      11 -94.8786      12 -95.1341      13 -94.8469      14 -94.7344      15 -94.8476
      16 -94.7403      17 -94.8523      18 -95.0827      19 -94.8532      20 -95.0833
      21 -95.0826      22 -95.1373      23 -94.8505      24 -95.1380      25 -95.1181
      26 -95.0837      27 -94.8525

 E-fermi :  -3.1765     XC(G=0):  -2.5482     alpha+bet : -2.3448

[...]

 k-point    34 :       0.5000    0.5000    0.0000
  band No.  band energies     occupation
      1     -17.4857      2.00000
      2     -17.2800      2.00000
      3     -16.7075      2.00000
      4     -16.6501      2.00000
      5     -16.5002      2.00000
      6     -16.4049      2.00000
      7     -16.1698      2.00000
      8     -16.1672      2.00000
      9     -16.1646      2.00000
     10     -16.0270      2.00000
     11     -15.9336      2.00000
     12     -15.7414      2.00000
     13     -15.7283      2.00000
     14     -15.6750      2.00000
     15     -15.6612      2.00000
     16     -15.5435      2.00000
     17     -15.5289      2.00000
     18     -15.4903      2.00000
     19      -9.7611      2.00000
     20      -9.2744      2.00000
     21      -9.2634      2.00000
     22      -9.0350      2.00000
     23      -8.8953      2.00000
     24      -8.8571      2.00000
     25      -8.5824      2.00000
     26      -8.5079      2.00000
     27      -8.3857      2.00000
     28      -8.2832      2.00000
     29      -8.2386      2.00000
     30      -8.1470      2.00000
     31      -8.0813      2.00000
     32      -7.9621      2.00000
     33      -7.9610      2.00000
     34      -7.8045      2.00000
     35      -7.7371      2.00000
     36      -7.6699      2.00000
     37      -7.6016      2.00000
     38      -7.3346      2.00000
     39      -7.3220      2.00000
     40      -7.2727      2.00000
     41      -7.0390      2.00000
     42      -7.0132      2.00000
     43      -6.9136      2.00000
     44      -6.8987      2.00000
     45      -6.8756      2.00000
     46      -6.7486      2.00000
     47      -6.6849      2.00000
     48      -6.6348      2.00000
     49      -6.6142      2.00000
     50      -6.5731      2.00000
     51      -6.3482      2.00000
     52      -6.3244      2.00000
     53      -6.2300      2.00000
     54      -6.1650      2.00000
     55      -6.1370      2.00000
     56      -6.0934      2.00000
     57      -6.0646      2.00000
     58      -5.9418      2.00000
     59      -5.9283      2.00000
     60      -5.8226      2.00000
[...]
    106      -0.2861      0.00000
    107      -0.2642      0.00000
    108      -0.1429      0.00000
    109       0.0184      0.00000
    110       0.3182      0.00000
    111       0.3856      0.00000
    112       0.5455      0.00000
    113       0.6025      0.00000
    114       0.8777      0.00000
    115       1.0954      0.00000
    116       1.3415      0.00000
    117       1.3558      0.00000
    118       2.2257      0.00000
    119       2.2387      0.00000
    120       2.3664      0.00000

 soft charge-density along one line, spin component           1
         0         1         2         3         4         5         6         7         8         9
 total charge-density along one line

------------------------ aborting loop because EDIFF is reached ----------------------------------------

  FORCE on cell =-STRESS in cart. coord.  units (eV):
  Direction    XX          YY          ZZ          XY          YZ          ZX
  Alpha Z    88.65746    88.65746    88.65746
  Ewald   48911.18273 48910.73203-53857.97046    -0.08652     0.07402    -0.12630
  Hartree 49627.67156 49627.43202-49284.57190    -0.06649     0.02219    -0.01136
  E(xc)    -609.79446  -609.79542  -616.84718     0.00065    -0.00082     0.00037
  Local  ************************100585.43190     0.16010    -0.10558     0.11313
  n-local  1214.29135  1214.30552  1251.44921     0.01465     0.00264    -0.02345
  augment  -212.80544  -212.80999  -215.57387    -0.00613    -0.00414     0.00081
  Kinetic  2014.99600  2014.99492  2047.07644    -0.00091     0.02684     0.03889
  Fock        0.00000     0.00000     0.00000     0.00000     0.00000     0.00000
  Total       0.07960     0.05548    -2.34841     0.01534     0.01514    -0.00791
  in kB       0.05281     0.03681    -1.55816     0.01018     0.01005    -0.00525

 VOLUME and BASIS-vectors are now :
  energy-cutoff  :      280.00
  volume of cell :     2414.75
      direct lattice vectors                 reciprocal lattice vectors
     8.348455354  4.820703834  0.000000000     0.059891622  0.103718769  0.000000000
    -8.348493117  4.820774452  0.000000000    -0.059890745  0.103718300  0.000000000
     0.000000000  0.000000000 30.000000000     0.000000000  0.000000000  0.033333333

  length of vectors
     9.640326356  9.640394372 30.000000000     0.119768900  0.119768055  0.033333333

 FORCES acting on ions
    electron-ion (+dipol)            ewald-force                    non-local-force                 convergence-correction
   0.116E+02 0.137E+00 -.271E+00   -.120E+02 -.166E+00 0.384E+00   0.433E+00 0.185E-01 -.110E+00   -.538E-01 0.189E-01 -.311E-02
   -.579E+01 -.102E+02 -.434E-02   0.598E+01 0.105E+02 0.110E+00   -.218E+00 -.385E+00 -.104E+00   0.310E-01 0.661E-01 -.322E-02
   -.560E+01 0.101E+02 -.153E+00   0.578E+01 -.105E+02 0.265E+00   -.198E+00 0.385E+00 -.108E+00   0.302E-01 -.277E-01 -.298E-02
   -.285E+02 0.111E+00 -.194E+01   0.274E+02 -.539E-01 0.219E+01   0.104E+01 0.351E-03 -.240E+00   0.941E-02 -.523E-01 0.253E-02
   0.143E+02 0.249E+02 -.193E+01   -.138E+02 -.240E+02 0.218E+01   -.513E+00 -.892E+00 -.244E+00   0.127E-01 -.239E-01 0.128E-02
   0.143E+02 -.247E+02 -.194E+01   -.137E+02 0.238E+02 0.219E+01   -.517E+00 0.900E+00 -.240E+00   -.283E-01 -.984E-02 -.980E-04
   -.293E+02 -.156E+00 0.377E+00   0.285E+02 0.140E+00 -.360E+00   0.732E+00 -.909E-02 -.384E-02   0.471E-01 0.219E-01 -.749E-02
   0.145E+02 -.254E+02 0.370E+00   -.141E+02 0.247E+02 -.355E+00   -.379E+00 0.634E+00 -.587E-02   -.552E-02 0.330E-01 -.513E-02
   0.146E+02 0.254E+02 0.461E+00   -.142E+02 -.246E+02 -.443E+00   -.379E+00 -.653E+00 -.519E-02   -.433E-01 -.548E-01 -.697E-02
   -.874E+01 -.222E+00 0.525E+03   0.975E+01 0.145E+00 -.529E+03   -.110E+01 0.368E-02 0.412E+01   0.791E-01 0.719E-01 0.644E-01
   0.117E+00 0.112E-02 -.521E+03   -.123E+00 -.636E-01 0.526E+03   -.224E-02 -.784E-02 -.406E+01   0.686E-02 0.691E-01 -.110E+00
   -.700E+01 -.120E+02 0.579E+03   0.643E+01 0.111E+02 -.583E+03   0.549E+00 0.964E+00 0.377E+01   0.166E-01 0.138E-01 -.890E-02
   -.507E+01 0.102E+02 -.546E+03   0.575E+01 -.103E+02 0.551E+03   -.794E+00 0.115E+00 -.420E+01   0.106E+00 -.129E-02 -.584E-01
   0.421E+01 -.766E+01 0.525E+03   -.476E+01 0.851E+01 -.529E+03   0.554E+00 -.948E+00 0.412E+01   -.714E-03 0.847E-01 0.454E-01
   0.113E+02 0.787E+00 -.546E+03   -.118E+02 -.222E+00 0.551E+03   0.498E+00 -.633E+00 -.420E+01   -.369E-01 0.621E-01 -.325E-01
   0.446E+01 0.763E+01 0.526E+03   -.493E+01 -.851E+01 -.530E+03   0.554E+00 0.956E+00 0.411E+01   -.708E-01 -.623E-01 0.957E-01
   0.113E+02 -.753E+00 -.547E+03   -.117E+02 0.175E+00 0.551E+03   0.513E+00 0.646E+00 -.419E+01   -.672E-01 -.616E-01 -.352E-01
   -.108E+02 0.190E+02 0.589E+03   0.107E+02 -.189E+02 -.593E+03   0.478E-01 -.704E-01 0.385E+01   0.479E-01 -.927E-01 0.579E-01
   -.619E+01 0.950E+01 -.547E+03   0.593E+01 -.102E+02 0.551E+03   0.302E+00 0.766E+00 -.419E+01   -.423E-01 -.107E+00 -.602E-01
   0.218E+02 0.121E+00 0.589E+03   -.217E+02 -.117E+00 -.593E+03   -.888E-01 0.369E-02 0.384E+01   -.770E-01 -.779E-02 0.266E-01
   0.554E-01 0.996E-01 -.635E+03   -.577E-01 -.790E-01 0.639E+03   0.311E-02 0.549E-02 -.351E+01   -.189E-02 -.245E-01 0.108E-01
   -.695E+01 0.119E+02 0.579E+03   0.641E+01 -.110E+02 -.583E+03   0.549E+00 -.972E+00 0.376E+01   -.954E-02 -.569E-02 -.201E-01
   -.504E+01 -.103E+02 -.547E+03   0.580E+01 0.104E+02 0.551E+03   -.800E+00 -.120E+00 -.420E+01   0.399E-01 0.285E-01 -.485E-03
   0.138E+02 -.839E-02 0.580E+03   -.127E+02 0.310E-01 -.583E+03   -.112E+01 -.468E-02 0.376E+01   -.777E-02 -.184E-01 -.122E-01
   -.111E+00 -.715E-01 -.635E+03   0.110E+00 0.815E-01 0.639E+03   -.211E-02 -.103E-01 -.393E+01   0.140E-02 -.201E-02 0.696E-02
   -.109E+02 -.189E+02 0.589E+03   0.108E+02 0.188E+02 -.593E+03   0.438E-01 0.718E-01 0.384E+01   0.203E-01 0.293E-01 -.103E-01
   -.632E+01 -.952E+01 -.547E+03   0.603E+01 0.102E+02 0.551E+03   0.297E+00 -.754E+00 -.419E+01   -.134E-02 0.372E-01 0.230E-03
   -.143E-01 0.696E-02 0.261E+01   0.178E-13 0.108E-12 0.000E+00   0.122E-01 0.785E-02 -.254E+01   0.238E-02 -.152E-01 -.657E-01

 POSITION                                       TOTAL-FORCE (eV/Angst)
      2.84414      1.60815      0.00910        -0.011681      0.008484      0.000280
     -0.03037     -0.05430      0.00795         0.004943      0.004867     -0.002006
     -0.02844      3.26701      0.00867         0.015907     -0.008179      0.000957
     -0.21128      6.42768      0.00356        -0.019734      0.004873      0.005222
     -2.67672      5.00463      0.00349         0.010847      0.018804      0.004581
      5.67187      3.02977      0.00349         0.014215     -0.015026      0.006043
      5.34375      6.42566     -0.00626        -0.029604     -0.003577      0.006037
     -5.45646      3.02009     -0.00620         0.009492     -0.026168      0.003898
      2.89262      5.01148     -0.00651         0.010802      0.020646      0.005504
     -0.93439      1.60617     28.58008        -0.011900     -0.001062      0.015553
      0.92774      1.60617      1.40152        -0.001082     -0.001224      0.000601
     -3.68571      3.25625     28.43203         0.002461      0.006035      0.010424
     -1.83810      3.20937      1.47948        -0.006200     -0.001611     -0.020266
     -6.48976      4.81448     28.58007         0.004693     -0.012164      0.013732
     -4.65017      4.83307      1.47955         0.001717     -0.006123     -0.020022
      1.85861      3.21846     28.57828         0.004961      0.010003      0.004293
      3.69860      3.19999      1.48098         0.003857      0.006169     -0.015521
     -0.91068      4.79120     28.40467        -0.001710      0.003447      0.001534
      0.92198      4.80339      1.48134         0.002607      0.005226     -0.013650
     -3.74440      6.42724     28.40437         0.005324     -0.000185      0.003782
     -1.85491      6.42714      1.71782        -0.001136      0.001580      0.009834
      4.66251      4.77676     28.43070         0.003288     -0.008214      0.007064
      6.51086      4.82376      1.48092        -0.003239      0.000338     -0.019019
      1.80543      6.42663     28.42998        -0.007549     -0.000500      0.006776
      3.71004      6.42660      1.73542        -0.001296     -0.002306     -0.002959
     -0.91068      8.06328     28.40404        -0.000904     -0.002509      0.004053
      0.92194      8.05109      1.48146         0.000919     -0.001620     -0.016726
    total drift:                                0.000331     -0.000417     -0.001713

  FREE ENERGIE OF THE ION-ELECTRON SYSTEM (eV)
  free  energy   TOTEN  =      -191.74234270 eV

  energy  without entropy=     -191.53999119  energy(sigma->0) =     -191.64116694

 d Force = 0.2165732E-03[ 0.151E-03, 0.282E-03]  d Energy = 0.2955802E-03-0.790E-04
 d Force =-0.1503678E+01[-0.150E+01,-0.150E+01]  d Ewald  = 0.2207024E+02-0.236E+02

 Quasi-Newton relaxation of ions (Broydens 2nd method)
  g(Force)  = 0.376E-03   g(Stress)= 0.177E-04

 retain information from N=  2 steps
 eigenvalues of (default step * inverse Hessian matrix)
  average eigenvalue of G=   1.1773
 eigenvalue spectrum of G is  0.1952  2.1594

 reached required accuracy - stopping structural energy minimisation