 vasp.5.4.1 05Feb16 (build Jul 05 2020 17:13:04) complex

 executed on           IFC91_ompi date 2024.04.23  14:15:26

 INCAR:
 POTCAR:   PAW_PBE V 08Apr2002
 POTCAR:   PAW_PBE Mo 08Apr2002
 POTCAR:   PAW_PBE W 08Apr2002
 POTCAR:    PAW_PBE S 17Jan2003

 POTCAR:   PAW_PBE V 08Apr2002
   VRHFIN =V: p6 d4 s1

   TITEL  = PAW_PBE V 08Apr2002
   POMASS =   50.941; ZVAL   =    5.000    mass and valenz
   ENMAX  =  192.543; ENMIN  =  144.408 eV
   QCUT   =   -3.762; QGAM   =    7.524    optimization parameters

   Description
     l     E      TYP  RCUT    TYP  RCUT
     2   .000     23  2.700
     2   .000     23  2.700
     0   .000     23  2.700
     0  2.000     23  2.700
     1   .000     23  2.700
     1  2.000     23  2.700
     3   .000      7   .000

 POTCAR:   PAW_PBE Mo 08Apr2002
   VRHFIN =Mo: 4p5s4d

[...]

 POTCAR:   PAW_PBE W 08Apr2002
   VRHFIN =W : 6s5d

   TITEL  = PAW_PBE W 08Apr2002
   POMASS =  183.850; ZVAL   =    6.000    mass and valenz
   ENMAX  =  223.057; ENMIN  =  167.293 eV
   QCUT   =   -4.049; QGAM   =    8.098    optimization parameters

[...]

 POTCAR:    PAW_PBE S 17Jan2003
   VRHFIN =S : s2p4

   TITEL  = PAW_PBE S 17Jan2003
   POMASS =   32.066; ZVAL   =    6.000    mass and valenz
   ENMAX  =  280.000; ENMIN  =  194.016 eV
   QCUT   =   -4.360; QGAM   =    8.721    optimization parameters

   Description
     l     E      TYP  RCUT    TYP  RCUT
     0   .000     23  1.900
     0   .000     23  1.900
     1   .000     23  1.900
     1   .000     23  1.900
     2   .000     23  1.900

 PAW_PBE V 08Apr2002                    :
 PAW_PBE Mo 08Apr2002                   :
 PAW_PBE W 08Apr2002                    :
  PAW_PBE S 17Jan2003                   :

 POSCAR: crystal structure from VMoWS2 with Hexag
  positions in cartesian coordinates
 exchange correlation table for  LEXCH =        8
   RHO(1)=    0.500       N(1)  =     2000
   RHO(2)=  100.500       N(2)  =     4000

 ion  position               nearest neighbor table
   1  1.000  0.333  0.000-  25 2.34  10 2.34  13 2.36  12 2.36  22 2.36  23 2.36
   2  0.667  0.333  0.000-  19 2.34  22 2.34  25 2.36  24 2.36  17 2.36  16 2.36
   3  0.333  0.000  0.000-  11 2.34  20 2.34  17 2.36  16 2.36  15 2.36  14 2.36
   4  0.667  0.667  0.000-  21 2.34  24 2.34  27 2.36  26 2.36  19 2.36  18 2.36   7 3.34   9 3.34
                             8 3.34   6 3.36   5 3.36
   5  0.333  0.333  0.000-  13 2.34  16 2.34  19 2.36  18 2.36  11 2.36  10 2.36   8 3.34   6 3.36
                             4 3.36
   6  0.000  0.000  0.000-  23 2.34  14 2.34  11 2.36  10 2.36  27 2.36  26 2.36   9 3.34   7 3.34
                             4 3.36   5 3.36
   7  0.000  0.667  0.000-  27 2.34  12 2.34  14 2.36  15 2.36  24 2.36  25 2.36   4 3.34   6 3.34
                             8 3.34
   8  0.333  0.667  0.000-  15 2.34  18 2.34  20 2.36  21 2.36  13 2.36  12 2.36   5 3.34   7 3.34
                             4 3.34   9 3.36
   9  0.667  0.000  0.000-  17 2.34  26 2.34  23 2.36  22 2.36  21 2.36  20 2.36   6 3.34   4 3.34
                             8 3.36
  10  0.111  0.222  0.955-   1 2.34   6 2.36   5 2.36
  11  0.222  0.111  0.045-   3 2.34   6 2.36   5 2.36
  12  0.111  0.556  0.955-   7 2.34   1 2.36   8 2.36
  13  0.222  0.444  0.045-   5 2.34   1 2.36   8 2.36
  14  0.111  0.889  0.955-   6 2.34   7 2.36   3 2.36
  15  0.222  0.777  0.045-   8 2.34   7 2.36   3 2.36
  16  0.444  0.222  0.955-   5 2.34   3 2.36   2 2.36
  17  0.556  0.111  0.045-   9 2.34   3 2.36   2 2.36
  18  0.444  0.556  0.955-   8 2.34   5 2.36   4 2.36
  19  0.556  0.444  0.045-   2 2.34   5 2.36   4 2.36
  20  0.444  0.889  0.955-   3 2.34   8 2.36   9 2.36
  21  0.556  0.777  0.045-   4 2.34   8 2.36   9 2.36
  22  0.777  0.222  0.955-   2 2.34   9 2.36   1 2.36
  23  0.889  0.111  0.045-   6 2.34   9 2.36   1 2.36
  24  0.777  0.556  0.955-   4 2.34   2 2.36   7 2.36
  25  0.889  0.444  0.045-   1 2.34   2 2.36   7 2.36
  26  0.777  0.889  0.955-   9 2.34   4 2.36   6 2.36
  27  0.889  0.777  0.045-   7 2.34   4 2.36   6 2.36

IMPORTANT INFORMATION: All symmetrisations will be switched off!
NOSYMM: (Re-)initialisation of all symmetry stuff for point group C_1.

 KPOINTS: K-POINTS 	#supercell of CrS2 in hexagona

Automatic generation of k-mesh.
Space group operators:
 irot       det(A)        alpha          n_x          n_y          n_z        tau_x        tau_y        tau_z
    1     1.000000     0.000000     1.000000     0.000000     0.000000     0.000000     0.000000     0.000000

 Subroutine IBZKPT returns following result:

 Found     34 irreducible k-points:

 Following reciprocal coordinates:
            Coordinates               Weight
  0.000000  0.000000  0.000000      1.000000
  0.125000  0.000000  0.000000      2.000000
  0.250000  0.000000  0.000000      2.000000
  0.375000  0.000000  0.000000      2.000000
  0.500000  0.000000  0.000000      1.000000
  0.000000  0.125000  0.000000      2.000000
  0.125000  0.125000  0.000000      2.000000
  0.250000  0.125000  0.000000      2.000000
  0.375000  0.125000  0.000000      2.000000
  0.500000  0.125000  0.000000      2.000000
 -0.375000  0.125000  0.000000      2.000000
 -0.250000  0.125000  0.000000      2.000000
 -0.125000  0.125000  0.000000      2.000000
  0.000000  0.250000  0.000000      2.000000
  0.125000  0.250000  0.000000      2.000000
  0.250000  0.250000  0.000000      2.000000
  0.375000  0.250000  0.000000      2.000000
  0.500000  0.250000  0.000000      2.000000
 -0.375000  0.250000  0.000000      2.000000
 -0.250000  0.250000  0.000000      2.000000
 -0.125000  0.250000  0.000000      2.000000
 -0.000000  0.375000  0.000000      2.000000
  0.125000  0.375000  0.000000      2.000000
  0.250000  0.375000  0.000000      2.000000
  0.375000  0.375000  0.000000      2.000000
  0.500000  0.375000  0.000000      2.000000
 -0.375000  0.375000  0.000000      2.000000
 -0.250000  0.375000  0.000000      2.000000
 -0.125000  0.375000  0.000000      2.000000
  0.000000  0.500000  0.000000      1.000000
  0.125000  0.500000  0.000000      2.000000
  0.250000  0.500000  0.000000      2.000000
  0.375000  0.500000  0.000000      2.000000
  0.500000  0.500000  0.000000      1.000000

 Following cartesian coordinates:
            Coordinates               Weight
  0.000000  0.000000  0.000000      1.000000
  0.007209  0.012401  0.000000      2.000000
  0.014418  0.024802  0.000000      2.000000
  0.021626  0.037202  0.000000      2.000000
  0.028835  0.049603  0.000000      1.000000
 -0.007209  0.012401  0.000000      2.000000
  0.000000  0.024802  0.000000      2.000000
  0.007209  0.037202  0.000000      2.000000
  0.014418  0.049603  0.000000      2.000000
  0.021626  0.062004  0.000000      2.000000
 -0.028835 -0.024802  0.000000      2.000000
 -0.021626 -0.012401  0.000000      2.000000
 -0.014418  0.000000  0.000000      2.000000
 -0.014418  0.024802  0.000000      2.000000
 -0.007209  0.037202  0.000000      2.000000
  0.000000  0.049603  0.000000      2.000000
  0.007209  0.062004  0.000000      2.000000
  0.014418  0.074405  0.000000      2.000000
 -0.036044 -0.012401  0.000000      2.000000
 -0.028835  0.000000  0.000000      2.000000
 -0.021626  0.012401  0.000000      2.000000
 -0.021626  0.037202  0.000000      2.000000
 -0.014418  0.049603  0.000000      2.000000
 -0.007209  0.062004  0.000000      2.000000
  0.000000  0.074405  0.000000      2.000000
  0.007209  0.086806  0.000000      2.000000
 -0.043253  0.000000  0.000000      2.000000
 -0.036044  0.012401  0.000000      2.000000
 -0.028835  0.024802  0.000000      2.000000
 -0.028835  0.049603  0.000000      1.000000
 -0.021626  0.062004  0.000000      2.000000
 -0.014418  0.074405  0.000000      2.000000
 -0.007209  0.086806  0.000000      2.000000
  0.000000  0.099206  0.000000      1.000000

 I would recommend the setting:
   dimension x,y,z NGX =    41 NGY =   41 NGZ =  123
 SYSTEM =  unknown system
 POSCAR =  crystal structure from VMoWS2 with Hexag

 Startparameter for this run:
   NWRITE =      2    write-flag & timer
   PREC   = normal    normal or accurate (medium, high low for compatibility)
   ISTART =      0    job   : 0-new  1-cont  2-samecut
   ICHARG =      2    charge: 1-file 2-atom 10-const
   ISPIN  =      1    spin polarized calculation?
   LNONCOLLINEAR =      F non collinear calculations
   LSORBIT =      F    spin-orbit coupling
   INIWAV =      1    electr: 0-lowe 1-rand  2-diag
   LASPH  =      F    aspherical Exc in radial PAW
   METAGGA=      F    non-selfconsistent MetaGGA calc.

 Electronic Relaxation 1
   ENCUT  =  280.0 eV  20.58 Ry    4.54 a.u.  13.68 13.68 40.93*2*pi/ulx,y,z
   ENINI  =  280.0     initial cutoff
   ENAUG  =  373.4 eV  augmentation charge cutoff
   NELM   =     60;   NELMIN=  2; NELMDL= -5     # of ELM steps
   EDIFF  = 0.1E-03   stopping-criterion for ELM
   LREAL  =      F    real-space projection
   NLSPLINE    = F    spline interpolate recip. space projectors
   LCOMPAT=      F    compatible to vasp.4.4
   GGA_COMPAT  = T    GGA compatible to vasp.4.4-vasp.4.6
   LMAXPAW     = -100 max onsite density
   LMAXMIX     =    2 max onsite mixed and CHGCAR
   VOSKOWN=      0    Vosko Wilk Nusair interpolation
   ROPT   =    0.00000   0.00000   0.00000   0.00000
 Ionic relaxation
   EDIFFG = 0.1E-02   stopping-criterion for IOM
   NSW    =    100    number of steps for IOM
   NBLOCK =      1;   KBLOCK =    100    inner block; outer block
   IBRION =      1    ionic relax: 0-MD 1-quasi-New 2-CG
   NFREE  =      0    steps in history (QN), initial steepest desc. (CG)
   ISIF   =      3    stress and relaxation
   IWAVPR =     11    prediction:  0-non 1-charg 2-wave 3-comb
   ISYM   =      0    0-nonsym 1-usesym 2-fastsym
   LCORR  =      T    Harris-Foulkes like correction to forces

   POTIM  = 0.5000    time-step for ionic-motion
   TEIN   =    0.0    initial temperature
   TEBEG  =    0.0;   TEEND  =   0.0 temperature during run
   SMASS  =  -3.00    Nose mass-parameter (am)
   estimated Nose-frequenzy (Omega)   =  0.10E-29 period in steps =****** mass=  -0.230E-26a.u.
   SCALEE = 1.0000    scale energy and forces
   NPACO  =    256;   APACO  = 16.0  distance and # of slots for P.C.
   PSTRESS=    0.0 pullay stress

  Mass of Ions in am
   POMASS =  50.94 95.94183.85 32.07
  Ionic Valenz
   ZVAL   =   5.00  6.00  6.00  6.00
  Atomic Wigner-Seitz radii
  virtual crystal weights
   VCA    =   1.00  1.00  1.00  1.00
   NELECT =     159.0000    total number of electrons
   NUPDOWN=      -1.0000    fix difference up-down

 DOS related values:
   EMIN   =  10.00;   EMAX   =-10.00  energy-range for DOS
   EFERMI =   0.00
   ISMEAR =     0;   SIGMA  =   0.20  broadening in eV -4-tet -1-fermi 0-gaus

 Electronic relaxation 2 (details)
   IALGO  =     38    algorithm
   LDIAG  =      T    sub-space diagonalisation (order eigenvalues)
   LSUBROT=      F    optimize rotation matrix (better conditioning)
   TURBO    =      0    0=normal 1=particle mesh
   IRESTART =      0    0=no restart 2=restart with 2 vectors
   NREBOOT  =      0    no. of reboots
   NMIN     =      0    reboot dimension
   EREF     =   0.00    reference energy to select bands
[...]
     -3.85900      3.35900     28.66200         0.459471     -0.569890     -2.113755
     -1.92100      3.35900      1.33800        -0.650407     -0.559644      2.191289
     -6.74900      5.03900     28.66200         0.615374      0.574596     -2.203442
     -4.81100      5.03900      1.33800        -0.450124      0.566483      2.117181
      1.92100      3.35900     28.66200         0.909405     -0.020234     -1.486304
      3.85900      3.35900      1.33800        -0.746796     -0.005174      1.432556
     -0.96900      5.03900     28.66200        -0.023737      0.014848     -2.910423
      0.96900      5.03900      1.33800         0.739425      0.008710      2.106904
     -3.85900      6.71900     28.66200        -0.639585      0.005290     -2.107444
     -1.92100      6.71900      1.33800        -0.277792     -0.021973      2.935798
      4.81100      5.03900     28.66200        -0.237737      0.519549     -1.396711
      6.74900      5.03900      1.33800        -0.644129      0.571678      2.173331
      1.92100      6.71900     28.66200         0.612375     -0.546305     -2.170165
      3.85900      6.71900      1.33800         0.255420     -0.512887      1.407043
     -0.96900      8.39900     28.66200        -0.034030      0.009186     -2.912210
      0.96900      8.39900      1.33800         0.044775     -0.017485      2.892475
    total drift:                               -0.000034      0.000082      0.000084

  FREE ENERGIE OF THE ION-ELECTRON SYSTEM (eV)
  free  energy   TOTEN  =      -186.89128334 eV

  energy  without entropy=     -186.54998738  energy(sigma->0) =     -186.72063536

 Quasi-Newton relaxation of ions (Broydens 2nd method)
  g(Force)  = 0.469E+01   g(Stress)= 0.355E+00

 Reset! Starting new Quasi-Newton update for ions

[...]

 d Force = 0.2382914E+01[ 0.668E-01, 0.470E+01]  d Energy = 0.1810971E+01 0.572E+00
 d Force = 0.9584876E+03[ 0.941E+03, 0.976E+03]  d Ewald  = 0.2509798E+04-0.155E+04

[...]

 retain information from N=  1 steps
 eigenvalues of (default step * inverse Hessian matrix)
  average eigenvalue of G=   0.2445
 eigenvalue spectrum of G is  0.2445

[...]

 d Force = 0.3531244E-01[ 0.344E-01, 0.363E-01]  d Energy = 0.1095122E+01-0.106E+01
 d Force =-0.3027855E+01[-0.310E+01,-0.296E+01]  d Ewald  =-0.1927854E+04 0.192E+04

[...]

 d Force = 0.4791921E+00[ 0.421E+00, 0.537E+00]  d Energy = 0.1002172E+01-0.523E+00
 d Force = 0.4129519E+03[ 0.423E+03, 0.403E+03]  d Ewald  =-0.1526477E+04 0.194E+04

[...]

 d Force = 0.5986704E-01[ 0.511E-01, 0.686E-01]  d Energy = 0.6323460E-01-0.337E-02
 d Force =-0.1088985E+02[-0.106E+02,-0.112E+02]  d Ewald  = 0.1648860E+03-0.176E+03

[...]

 d Force = 0.2254381E-02[ 0.209E-02, 0.242E-02]  d Energy = 0.2131392E-02 0.123E-03
 d Force = 0.8926487E+00[ 0.900E+00, 0.885E+00]  d Ewald  = 0.9447161E+01-0.855E+01

[...]

 d Force = 0.2090971E-02[ 0.191E-02, 0.227E-02]  d Energy = 0.1891687E-02 0.199E-03
 d Force =-0.9304230E-01[-0.838E-01,-0.102E+00]  d Ewald  =-0.1459772E+02 0.145E+02

[...]

 eigenvalue-minimisations  :  6800
 total energy-change (2. order) : 0.1192075E-03  (-0.1818453E-04)
 number of electron     159.0000003 magnetization
 augmentation part       -4.2177077 magnetization

[...]

 eigenvalues of (default mixing * dielectric matrix)
  average eigenvalue GAMMA=   0.7525
  2.3459  0.8052  0.6670  0.3328  0.1778  0.1864

[...]

 d Force = 0.3829362E-02[ 0.191E-02, 0.575E-02]  d Energy = 0.3431385E-02 0.398E-03
 d Force = 0.5334678E+01[ 0.545E+01, 0.522E+01]  d Ewald  =-0.9601604E+01 0.149E+02

[...]

 FEWALD executed in parallel

[...]

 Broyden mixing:
  rms(total) = 0.27686E-02    rms(broyden)= 0.27656E-02
  rms(prec ) = 0.29460E-02
  weight for this iteration     100.00

[...]

----------------------------------------- Iteration   22(   2)  ---------------------------------------

 eigenvalue-minimisations  :  7400
 total energy-change (2. order) :-0.2466461E-04  (-0.1429002E-04)
 number of electron     159.0000004 magnetization
 augmentation part       -4.2203757 magnetization

 Free energy of the ion-electron system (eV)
  alpha Z        PSCENC =        89.19253068
  Ewald energy   TEWEN  =     44258.65856894
  -Hartree energ DENC   =    -50265.39447899
  -exchange      EXHF   =         0.00000000
  -V(xc)+E(xc)   XCENC  =      -233.59308495
  PAW double counting   =      4101.19366508    -3517.28065206
  entropy T*S    EENTRO =        -0.12556913
  eigenvalues    EBANDS =     -1386.55860679
  atomic energy  EATOM  =      6761.44252427
  Solvation  Ediel_sol  =         0.00000000
  free energy    TOTEN  =      -192.46510293 eV

  energy without entropy =     -192.33953380  energy(sigma->0) =     -192.40231837

 average (electrostatic) potential at core
  the test charge radii are     1.2064  1.2296  1.1823  0.9698
  (the norm of the test charge is              1.0000)
       1 -49.8096       2 -49.7343       3 -49.8566       4 -47.0277       5 -47.1112
       6 -47.0879       7 -49.6435       8 -49.5458       9 -49.5258      10 -94.9421
      11 -94.9856      12 -94.6854      13 -95.0596      14 -95.0892      15 -94.6883
      16 -94.9384      17 -94.5717      18 -95.3058      19 -95.1320      20 -94.6770
      21 -95.3061      22 -94.5755      23 -95.0866      24 -95.1891      25 -94.5558
      26 -95.2501      27 -95.3343

 E-fermi :  -3.2205     XC(G=0):  -2.5590     alpha+bet : -2.3590

[...]

 k-point    34 :       0.5000    0.5000    0.0000
  band No.  band energies     occupation
      1     -17.5055      2.00000
      2     -17.3589      2.00000
      3     -16.7595      2.00000
      4     -16.6790      2.00000
      5     -16.6728      2.00000
      6     -16.4365      2.00000
      7     -16.3312      2.00000
      8     -16.2412      2.00000
      9     -16.0439      2.00000
     10     -15.9957      2.00000
     11     -15.9370      2.00000
     12     -15.8466      2.00000
     13     -15.7232      2.00000
     14     -15.7085      2.00000
     15     -15.6552      2.00000
     16     -15.5572      2.00000
     17     -15.2895      2.00000
     18     -15.2548      2.00000
     19      -9.8368      2.00000
     20      -9.4163      2.00000
     21      -9.1694      2.00000
     22      -9.1061      2.00000
     23      -8.9551      2.00000
     24      -8.8275      2.00000
     25      -8.5374      2.00000
     26      -8.4616      2.00000
     27      -8.4194      2.00000
     28      -8.3041      2.00000
     29      -8.2773      2.00000
     30      -8.1961      2.00000
     31      -8.1477      2.00000
     32      -8.1069      2.00000
     33      -7.9667      2.00000
     34      -7.8815      2.00000
     35      -7.7769      2.00000
     36      -7.7357      2.00000
     37      -7.5221      2.00000
     38      -7.3548      2.00000
     39      -7.3117      2.00000
     40      -7.2372      2.00000
     41      -7.1271      2.00000
     42      -7.0829      2.00000
     43      -7.0533      2.00000
     44      -7.0437      2.00000
     45      -6.8177      2.00000
     46      -6.7470      2.00000
     47      -6.6170      2.00000
     48      -6.5829      2.00000
     49      -6.5616      2.00000
     50      -6.5327      2.00000
     51      -6.4516      2.00000
     52      -6.3418      2.00000
     53      -6.2595      2.00000
     54      -6.2227      2.00000
     55      -6.1675      2.00000
     56      -6.0735      2.00000
     57      -6.0439      2.00000
     58      -5.8799      2.00000
     59      -5.8413      2.00000
     60      -5.7982      2.00000
[...]
    106      -0.2797      0.00000
    107      -0.1649      0.00000
    108       0.0135      0.00000
    109       0.0291      0.00000
    110       0.0972      0.00000
    111       0.4334      0.00000
    112       0.7597      0.00000
    113       0.8286      0.00000
    114       0.9112      0.00000
    115       1.0619      0.00000
    116       1.1963      0.00000
    117       1.2653      0.00000
    118       2.1904      0.00000
    119       2.2570      0.00000
    120       2.4094      0.00000

 soft charge-density along one line, spin component           1
         0         1         2         3         4         5         6         7         8         9
 total charge-density along one line

------------------------ aborting loop because EDIFF is reached ----------------------------------------

  FORCE on cell =-STRESS in cart. coord.  units (eV):
  Direction    XX          YY          ZZ          XY          YZ          ZX
  Alpha Z    89.19253    89.19253    89.19253
  Ewald   49148.53905 49236.26158-54126.15884     1.29465     1.81461   -21.12549
  Hartree 49879.78933 49935.02364-49549.11639     0.84003     0.26468   -13.32612
  E(xc)    -611.40533  -609.03418  -617.68536     0.01974    -0.08420     0.93634
  Local  ************************101113.05691    -1.68121    -1.98428    44.35948
  n-local  1216.61150  1213.24542  1248.52112    -0.14339     0.49123     3.01728
  augment  -212.36837  -213.45990  -214.75857     0.39439     0.35685    -0.78622
  Kinetic  2020.46619  2002.01611  2054.98466    -0.72541    -0.84396   -12.98724
  Fock        0.00000     0.00000     0.00000     0.00000     0.00000     0.00000
  Total       0.27814     0.18107    -1.96393    -0.00120     0.01494     0.08802
  in kB       0.18566     0.12086    -1.31093    -0.00080     0.00997     0.05876

 VOLUME and BASIS-vectors are now :
  energy-cutoff  :      280.00
  volume of cell :     2400.26
      direct lattice vectors                 reciprocal lattice vectors
     8.335697979  4.793085647  0.000000000     0.060021328  0.104250242  0.000000000
    -8.340932220  4.802231759  0.000000000    -0.059907014  0.104184822  0.000000000
     0.000000000  0.000000000 30.000000000     0.000000000  0.000000000  0.033333333

  length of vectors
     9.615483910  9.624582077 30.000000000     0.120294110  0.120180395  0.033333333

 FORCES acting on ions
    electron-ion (+dipol)            ewald-force                    non-local-force                 convergence-correction
   0.225E+02 -.279E+00 -.236E+02   -.239E+02 0.266E+00 0.234E+02   0.145E+01 0.923E-02 0.199E+00   0.169E-01 0.241E-02 0.911E-02
   -.266E+02 0.200E+01 0.119E+02   0.281E+02 -.240E+01 -.117E+02   -.156E+01 0.376E+00 -.181E+00   0.303E-01 0.228E-01 0.640E-02
   -.219E+02 0.196E+00 0.229E+02   0.233E+02 0.111E+00 -.228E+02   -.140E+01 -.282E+00 -.150E+00   -.131E-02 -.248E-01 0.521E-02
   -.745E+01 0.408E+01 0.215E+01   0.727E+01 -.401E+01 -.221E+01   0.232E+00 -.900E-01 0.633E-01   -.528E-01 0.227E-01 0.298E-02
   -.482E+01 0.198E+02 0.160E+01   0.488E+01 -.198E+02 -.157E+01   0.506E-01 -.147E-01 -.291E-01   -.114E+00 -.416E-01 0.119E-01
   -.660E+00 -.231E+02 0.841E+00   0.736E+00 0.229E+02 -.894E+00   0.613E-02 0.119E+00 0.500E-01   -.832E-01 0.209E-01 0.874E-02
   -.345E+02 -.348E+01 0.120E+02   0.356E+02 0.358E+01 -.119E+02   -.111E+01 -.110E+00 -.151E+00   0.265E-01 0.468E-02 0.462E-02
   0.366E+02 0.618E+01 -.162E+02   -.374E+02 -.644E+01 0.160E+02   0.825E+00 0.304E+00 0.197E+00   0.810E-02 -.479E-01 0.666E-02
   0.359E+02 -.545E+01 -.133E+02   -.369E+02 0.572E+01 0.131E+02   0.990E+00 -.308E+00 0.258E+00   0.329E-01 0.447E-01 0.418E-02
   0.682E+01 0.206E+00 0.567E+03   -.872E+01 -.108E+00 -.570E+03   0.200E+01 -.873E-01 0.308E+01   -.104E+00 -.122E-01 0.801E-01
   -.834E+01 -.150E+01 -.564E+03   0.106E+02 0.157E+01 0.567E+03   -.220E+01 -.513E-01 -.299E+01   -.812E-01 -.201E-01 0.362E-01
   0.783E+01 0.483E+01 0.488E+03   -.740E+01 -.497E+01 -.493E+03   -.508E+00 0.192E+00 0.506E+01   0.790E-01 -.600E-01 0.504E-01
   0.223E+02 0.969E+01 -.607E+03   -.229E+02 -.994E+01 0.611E+03   0.619E+00 0.321E+00 -.390E+01   -.384E-01 -.688E-01 -.592E-01
   -.232E+02 -.910E+01 0.604E+03   0.239E+02 0.953E+01 -.608E+03   -.682E+00 -.392E+00 0.376E+01   -.286E-01 -.345E-01 -.373E-01
   -.490E+01 -.350E+01 -.490E+03   0.427E+01 0.363E+01 0.495E+03   0.576E+00 -.875E-01 -.498E+01   0.521E-01 -.378E-01 0.285E-01
   -.218E+02 0.653E+01 0.591E+03   0.228E+02 -.667E+01 -.594E+03   -.949E+00 0.145E+00 0.340E+01   -.347E-01 -.764E-02 -.804E-01
   -.374E+01 0.201E+01 -.484E+03   0.281E+01 -.187E+01 0.488E+03   0.845E+00 -.144E+00 -.475E+01   0.748E-01 0.207E-02 0.573E-01
   0.142E+02 0.693E+01 0.627E+03   -.151E+02 -.749E+01 -.630E+03   0.955E+00 0.564E+00 0.338E+01   -.413E-01 -.109E-01 0.345E-02
   -.205E+02 0.442E+01 -.604E+03   0.220E+02 -.503E+01 0.607E+03   -.142E+01 0.599E+00 -.294E+01   -.548E-01 0.460E-02 0.615E-01
   0.203E+02 0.149E+00 0.507E+03   -.206E+02 -.104E+00 -.512E+03   0.260E+00 -.323E-01 0.503E+01   0.589E-01 -.109E-01 -.145E-01
   0.252E+02 0.454E+00 -.627E+03   -.259E+02 -.565E+00 0.631E+03   0.774E+00 0.114E+00 -.374E+01   -.503E-02 -.127E-02 -.149E-02
   0.990E+01 -.544E+01 0.483E+03   -.101E+02 0.546E+01 -.488E+03   0.829E-01 -.890E-01 0.480E+01   0.118E+00 0.727E-01 0.285E-01
   0.226E+02 -.103E+02 -.603E+03   -.234E+02 0.106E+02 0.607E+03   0.790E+00 -.400E+00 -.375E+01   -.174E-01 0.715E-01 -.646E-01
   -.266E+02 0.346E+01 0.604E+03   0.277E+02 -.364E+01 -.607E+03   -.107E+01 0.141E+00 0.334E+01   -.110E-01 0.406E-01 -.542E-01
   -.151E+02 0.201E+01 -.495E+03   0.150E+02 -.222E+01 0.500E+03   0.149E-01 0.166E+00 -.480E+01   0.133E+00 0.348E-01 0.552E-05
   0.165E+02 -.699E+01 0.629E+03   -.173E+02 0.740E+01 -.632E+03   0.804E+00 -.434E+00 0.343E+01   -.199E-01 0.228E-01 0.148E-01
   -.197E+02 -.387E+01 -.625E+03   0.208E+02 0.439E+01 0.628E+03   -.105E+01 -.540E+00 -.337E+01   -.260E-01 0.154E-01 0.153E-01
   0.752E+00 0.351E-02 -.429E+00   0.391E-13 -.382E-13 0.682E-12   -.662E+00 -.123E-01 0.324E+00   -.823E-01 0.413E-02 0.124E+00

 POSITION                                       TOTAL-FORCE (eV/Angst)
      5.87899      6.39812      0.08405         0.016084     -0.001369      0.029386
      2.50672      4.79864     -0.04925        -0.005891     -0.000642     -0.003229
      2.44516      1.60471     -0.08178        -0.012271     -0.000110     -0.030359
     -0.04616      6.41403     -0.00772         0.003369     -0.004342      0.003010
     -0.03384      3.38057     -0.00349         0.001540     -0.000358      0.004461
      0.00297     -0.19405     -0.00228        -0.001105      0.001021      0.005800
     -5.85876      3.17345     -0.04345        -0.000495     -0.005149     -0.004945
     -2.47699      4.83551      0.05447         0.000138     -0.000894      0.005350
      5.84908      3.16771      0.04651         0.001034      0.007352      0.006972
     -0.89740      1.59779     28.49044        -0.006085     -0.001210      0.007108
      0.88727      1.60028      1.49996         0.006797      0.000343     -0.008677
     -3.68775      3.17160     28.71823         0.002773     -0.002846      0.011985
     -1.82903      3.19738      1.66859         0.005662      0.005476      0.001753
     -6.51689      4.80939     28.34345        -0.004307     -0.003089     -0.003678
     -4.65284      4.83768      1.28916        -0.004570      0.004541     -0.011793
      1.84517      3.22362     28.38632        -0.002982      0.001209     -0.006346
      3.67522      3.18099      1.26890        -0.003206     -0.002238     -0.015148
     -0.90606      4.82530     28.30982        -0.005222     -0.000467      0.004310
      0.95612      4.81637      1.61511         0.002714      0.000033     -0.005815
     -3.74411      6.39691     28.65390         0.000865      0.002022      0.005147
     -1.83158      6.39867      1.72119         0.002381      0.001645     -0.004566
      4.63959      4.82517     28.73304         0.002156      0.004507      0.009146
      6.50642      4.80337      1.65505         0.005292     -0.002303      0.005850
      1.84965      6.35391     28.35197        -0.001826      0.000504     -0.001833
      3.72400      6.36897      1.31084        -0.002385     -0.000779     -0.003871
     -0.90561      7.97226     28.30336        -0.003685     -0.000973      0.004745
      0.89355      7.96144      1.68359         0.003225     -0.001885     -0.004765
    total drift:                                0.007618     -0.004624      0.019006

  FREE ENERGIE OF THE ION-ELECTRON SYSTEM (eV)
  free  energy   TOTEN  =      -192.46510293 eV

  energy  without entropy=     -192.33953380  energy(sigma->0) =     -192.40231837

 d Force = 0.9078070E-04[ 0.613E-04, 0.120E-03]  d Energy = 0.1629232E-03-0.721E-04
 d Force =-0.7103238E+00[-0.710E+00,-0.710E+00]  d Ewald  = 0.8386160E+01-0.910E+01

 Quasi-Newton relaxation of ions (Broydens 2nd method)
  g(Force)  = 0.188E-03   g(Stress)= 0.197E-03

 retain information from N=  2 steps
 eigenvalues of (default step * inverse Hessian matrix)
  average eigenvalue of G=   4.2988
 eigenvalue spectrum of G is  0.6907  7.9069

 reached required accuracy - stopping structural energy minimisation